! SP DFT wB97X-D3BJ def2-TZVP RIJCOSX LooseSCF
! D3BJ
! CPCM(water)
%maxcore 4000
%pal
  NProcs 8
  End
* xyz 0 1
C           10.21848337339585       16.46637036751081       24.04804705143190
N           11.40262148738528       13.91148638896875       24.33710874058523
O           10.13178620925832       15.12950816788451       21.98281069163482
C           10.98794310193588       15.80056889451295       22.90788939576554
N           13.42787779632521       15.68722927391213       20.76075100578725
O           16.80060506081780       19.31604847148504       23.88855082752717
C            9.30147664192409       15.97960502420958       21.22104430777168
N           19.10180744594063       21.70356317037592       23.11776961807591
O           26.39936978359864       16.84331701125928       14.26179917666782
C           11.92615286602246       14.73199676420548       23.43937934514220
N           20.47675324208873       21.96033344244835       23.16290279448295
O           23.52623945078770       20.85444500513573       17.68280219872539
C           12.14244622329274       12.93879968688612       24.84040931151530
N           21.22816099945378       21.89227185524944       19.63922440935725
O           19.51233402589612       22.77320477951594       18.46429186588501
C           13.45934176672405       12.72198959208318       24.46942696754278
N           21.72048223891744       21.62014527650495       16.59126963317015
O           19.64099506018575       19.45762332723983       18.51167493564928
C           14.01787493695145       13.57750395519726       23.53686281391751
N           24.30816140491181       17.72757297325634       14.21141616220358
O           22.42906492205518       22.07351748526145       22.04674413801382
C           13.25512796242490       14.61377792928190       22.99945679831500
N           27.79973335854813       19.67258936672003       10.04153688028397
O           16.47614162988870       21.51045869732011       24.22216771825155
C           13.87413438228877       15.54944143248887       22.05582098731757
N           16.82346457065421       19.69418290977566       18.99212959112263
C           12.61594979042183       14.72068609766796       20.06278201909251
C           13.46768268151596       13.55806245760612       19.55421240567129
C           14.91231592270008       16.42364167455376       22.30079580560885
C           15.69259439580164       16.56175021864554       23.56944136377151
C           15.18267680185423       17.63095334839878       24.56199925288065
C           15.95678804308839       17.48900396811909       25.87549861302928
C           13.68851416099812       17.46043665758199       24.82665699228700
C           15.39617748584208       19.03829022555279       23.99137398103640
C           17.20433479605840       20.55568652863144       24.05625766113485
C           18.71924188446917       20.65769208002542       24.06316531664740
C           21.22346224641052       21.86500931661684       22.05275056505218
C           20.45656250484561       21.47847111072292       20.78683484317746
C           20.70270484141962       22.50420090565046       18.57591606537628
C           21.72411338082257       22.79450582030531       17.46908629947223
C           21.45749611946297       24.11259742993561       16.72946884629215
C           22.53244095069526       24.34732388179993       15.66926820906173
C           21.45621373313621       25.26088541849428       17.73817253373140
C           22.66327706741939       20.69992116583970       16.81808711139547
C           22.76337833333127       19.45702145813472       15.90880501724736
C           23.79619167897800       18.48059851655799       16.47495066723829
C           23.97509497873963       17.28062860018418       15.54404511674363
C           25.53480729990837       17.51673666471536       13.69801922182853
C           25.77647821879879       18.12706130323432       12.41636445908114
C           26.12624871785096       18.64077872155330       11.38478903845676
C           26.37713765418732       19.31673629496795       10.11556248630893
C           28.32216262151509       20.31804821030671       11.22743026466780
C           28.18347142376112       20.40525672201485        8.85245127324467
C           26.03490685970991       18.30589515409288        9.00523586734662
C           25.41060875658238       20.51872242390578       10.04264145144549
C           23.31702675565571       18.59292141737120       13.62074844846764
C           23.13233595054305       19.85061748047286       14.47456034286299
C           20.57885986437212       21.51194736600132       15.70849700711108
C           20.20751195603152       19.96014930355021       20.79677117935805
C           19.12719285053606       19.46295663104227       19.83705885683838
C           17.81412208153722       20.26736237443527       19.88307688263546
C           17.37319396068075       19.68544108004100       17.64690181065511
C           18.69116598933720       18.90205506752159       17.62105307098722
C           21.03773467393109       22.30932079023671       24.45995426872012
C           20.70654909335778       21.21473874886872       25.47284179450315
C           19.19841378822692       20.96656381609109       25.49260992918473
C           15.12940004722688       17.14170330748500       21.08481765866433
C           14.19278663978997       16.64502577135485       20.15069802501056
C           14.13361543798137       17.16783657764364       18.86509309572507
C           15.01524323116882       18.16509175361477       18.52574258241318
C           16.00317850840224       18.64485934756982       19.41519307951459
C           16.04694997816722       18.12446700144099       20.70237891036390
F           21.53233218762274       18.78358740372513       15.88247800171404
H           10.92005135604490       16.87233863145000       24.76859385707762
H            9.59902603090225       17.27490869439159       23.66923339949238
H            9.59545764406334       15.72408324416111       24.53727347884907
H           11.56668127739943       16.56035077195636       22.35722359779223
H            8.50063388876120       16.41132457512013       21.82825340152067
H            9.88805670931873       16.77715776075680       20.75163537515340
H            8.85739585710426       15.34778214521061       20.45605903582668
H           11.64866003261163       12.31294056633867       25.57098356817378
H           14.02755711503655       11.91032895357348       24.89523117990292
H           15.03849059829885       13.44386409993088       23.20844846867823
H           11.84110742866556       14.35071399466937       20.73734527646145
H           12.13195462824860       15.22284801989594       19.22336605535217
H           12.85305803049986       12.86413872657372       18.98932239480243
H           14.26452580473400       13.92724518587191       18.91253998989829
H           13.91295277874153       13.02658561805776       20.39273832206717
H           15.68843386671715       15.60407658664721       24.09295801694553
H           16.72649178028649       16.80618382888051       23.31314298477656
H           15.74011851510721       16.52725080589385       26.33196029574332
H           17.02690773971013       17.55617647023226       25.69845956892976
H           15.66968744808642       18.27247447133707       26.57377107111877
H           13.48176153968153       16.45244551249226       25.17514423528438
H           13.35501204414507       18.16556560937569       25.58355264204354
H           13.12266751270338       17.63566699308252       23.91575086365415
H           14.94605293864472       19.79475902516288       24.64008553484780
H           14.95211863099273       19.12165888155799       22.99730472314114
H           19.14394296813258       19.70691014474304       23.72666161566390
H           18.58004128978839       22.55240302783526       23.34551340697091
H           19.51126682923754       22.02363069054431       20.76423258946499
H           22.21712864079501       21.67648376942511       19.66410592221735
H           22.72442050901113       22.84253431030602       17.91373172576005
H           20.47104092021689       24.07467048117932       16.26231432183518
H           22.33832599380748       25.27715518253153       15.14116228821781
H           23.51154786708772       24.41427583336299       16.13946704664671
H           22.56066182465888       23.53699023985260       14.94616694648158
H           20.63314879108425       25.15216585284434       18.44131629984384
H           22.38955720391670       25.28434658025686       18.29663367364460
H           21.33962801712192       26.20860879306549       17.21806371154275
H           24.73874810219565       19.01475300232998       16.59833115211126
H           23.46805960689117       18.14355372534628       17.45853514508609
H           23.04584345476919       16.70356424878602       15.50388794232713
H           24.78480349412493       16.64097580520277       15.90078847904636
H           29.40641931805066       20.37447964366851       11.13568065942263
H           27.93866439609168       21.34084325806046       11.37485371473471
H           28.08362808104421       19.72291474830254       12.10727752522741
H           27.79760575994371       19.91196790394020        7.96577509760651
H           27.84592698430497       21.45310904148548        8.86025858063220
H           29.27205267103727       20.40317331951258        8.79657293184902
H           25.09841418074162       17.80770089984590        9.24144489026488
H           25.92565419738131       18.80580186517693        8.04738759643920
H           26.82195722082783       17.56067258579548        8.93624388038396
H           25.60339237231105       21.21281961243556       10.85762829096169
H           25.53108507972235       21.03781237217446        9.09590827446797
H           24.38491775123438       20.16881889904560       10.11992628086938
H           23.63105431160084       18.86455920240242       12.61353766291577
H           22.36922538780147       18.04798026757292       13.57198105863233
H           22.35084387714025       20.46980288553070       14.03734451128886
H           24.06133629210208       20.42139539398924       14.51094594109732
H           20.43798503785499       20.49938121954774       15.35664425468320
H           19.68871900960511       21.80309328048147       16.26778547359292
H           20.69364796714593       22.18321836213733       14.85751838374578
H           21.14376287012934       19.45838311405330       20.54173567934900
H           19.91670364439354       19.66282698255429       21.80055706414073
H           18.89593971029506       18.41513889665961       20.10734047917329
H           18.01216101108104       21.27637382815649       19.50987471520467
H           17.43450925411647       20.33592459170601       20.90108530425897
H           16.67964733447815       19.24529272542164       16.93609910635087
H           17.56702253079690       20.72528190293296       17.36456389591902
H           19.15146125637107       18.92289908472212       16.63527952829059
H           18.49490083400762       17.85606125798245       17.90753851001328
H           22.11327332084601       22.42280261607661       24.32552849633453
H           20.60778497591146       23.26453029105157       24.77846362416271
H           21.04627411889397       21.52083924932891       26.46117648627722
H           21.22745667411234       20.29710179437830       25.19653680106953
H           18.67292350407745       21.85401777059755       25.85261658372120
H           18.95666506449734       20.13200391842518       26.14968486500881
H           13.40715241702648       16.82213323024807       18.14563471611929
H           14.92902112257983       18.60325502258651       17.54471170439577
H           16.77867546452451       18.45904823884838       21.41988076783137
*
