! SP DFT wB97X-D3BJ def2-TZVP RIJCOSX LooseSCF
! D3BJ
! CPCM(water)
%maxcore 4000
%pal
  NProcs 8
  End
* xyz 0 1
C           10.33968063083713       16.26726597891269       24.19092583177070
N           11.52949988128890       13.70969280805507       24.17120363122981
O           10.20738022154545       15.20386952019219       21.97995310634972
C           11.08714532587382       15.74465298990478       22.96436895371178
N           13.42674578267700       15.77301337629730       20.69478111999231
O           16.85286633254293       19.23779453972288       24.01865293743499
C            9.43945050402084       16.16013698685048       21.28225405033582
N           18.94696166915294       21.80871112540648       23.15410357240751
O           25.97013768914340       16.64140448661660       14.20409161675997
C           12.02829642202013       14.61643152812524       23.34439935316278
N           20.29016754330629       22.19399990415201       23.22299682219229
O           23.29406802740300       20.70468393105112       17.75611652222959
C           12.27979693526645       12.68898299780686       24.54560590130973
N           21.19219887124653       22.03391336387952       19.72921499973421
O           19.51958623920385       22.90268489356277       18.48457367248897
C           13.58417332568324       12.50863507787812       24.11274684549385
N           21.65177461695122       21.71684276669284       16.60456779104193
O           19.60089716253874       19.66661384128764       18.58594364935609
C           14.11453350723913       13.44966715187206       23.24966361429266
N           23.99013381691473       17.74567364128102       14.11473944731166
O           22.26896732656558       22.40166669872805       22.17103837779917
C           13.33789519899786       14.53468597646231       22.84457956231784
N           27.91451461683620       19.15148735556906       10.14030945974751
O           16.31907566634004       21.40972707304248       24.15694663425909
C           13.92313358269216       15.54539748402702       21.95824742314138
N           16.77853198028809       19.86324562186075       19.05542591138614
C           12.56457944280622       14.87861949464297       19.96277598260073
C           13.37237987191729       13.78758211981846       19.26117043417712
C           14.97595131890366       16.39650760280553       22.22065775792807
C           15.81943710681559       16.43669410311511       23.45610494370644
C           15.35039298876246       17.40137545210451       24.56784290517822
C           16.22085779301424       17.17952517148512       25.80780221886283
C           13.88619520879083       17.14954584647639       24.92294317270163
C           15.47029293475334       18.85789885341130       24.10424087103881
C           17.13864206908146       20.51937903111555       24.08996759247428
C           18.63744316946503       20.76369968247250       24.12737413136614
C           21.08087443914641       22.10906009166603       22.14225552412084
C           20.38250835742428       21.65371693940658       20.86059502052110
C           20.70187019989797       22.61067628231995       18.63071983321951
C           21.74794802580226       22.84563308868882       17.53486519031243
C           21.58609292751526       24.21597371224100       16.86368153996604
C           22.64811925380295       24.41868874267748       15.78594198818377
C           21.71472671160159       25.30136425652509       17.93251515826049
C           22.47858452577173       20.68887927665282       16.83160045608671
C           22.52063194180238       19.50122146789217       15.84710716463280
C           23.43580249699797       18.40534058059810       16.39554089711946
C           23.54621499005903       17.25242624165966       15.39841652037039
C           25.20753886298335       17.42781459643512       13.63883967644910
C           25.56594286312760       18.04023206822159       12.38588981935832
C           26.00772244960557       18.50063887212126       11.36432593344820
C           26.44889177700605       19.10281097122953       10.10869792232837
C           28.46012812122888       19.89813549879072       11.25782870678060
C           28.55523249469999       19.54509423593457        8.90428597001582
C           25.96633077617637       18.17205552132650        8.98376009374779
C           25.76390504913654       20.47967707759828        9.97075507144752
C           23.11423898952497       18.73300509070528       13.53310784473749
C           22.99329679256929       19.94749070809269       14.46061875699484
C           20.51638391327075       21.74436102667673       15.70555948708857
C           20.14476226935458       20.13531544565392       20.88947114763930
C           19.08149596831286       19.63451514573499       19.91118346937531
C           17.75728894394857       20.41878123950223       19.96740337663930
C           17.33405843392683       19.89525505249270       17.71421793973206
C           18.65911930057637       19.12596584255631       17.67797412584887
C           20.77813997072121       22.63456742294441       24.52020155822511
C           20.53078017262733       21.53957064726557       25.55717051560572
C           19.05015836490952       21.15980989469427       25.55705721659083
C           15.14776763673053       17.19517365166312       21.04875651742344
C           14.17502244608209       16.76389714450636       20.11885386949567
C           14.08156297359676       17.35506489040923       18.86531474060646
C           14.96122397417906       18.36261942245714       18.55385919297880
C           15.97118816319253       18.79134428550503       19.44402224685125
C           16.05348702748698       18.19970606611906       20.69768589499678
F           21.24303819049958       18.93413215873093       15.71528617753454
H           11.05382905399505       16.57968004574155       24.94591453658510
H            9.71647763032344       17.11629893006252       23.92419879493998
H            9.72095547241574       15.47186405798634       24.59413888951208
H           11.66469534767077       16.56340662443181       22.50390282845525
H            8.66680968180590       16.60191249763901       21.91692592784039
H           10.07861097215177       16.95551584161310       20.88222150810703
H            8.96858175164244       15.62028053695040       20.46339410034890
H           11.80790643680512       11.99127513363652       25.22364646494967
H           14.16194012292772       11.65894892347865       24.43860367221658
H           15.12248323569655       13.34954667140683       22.87323591228946
H           11.84872363285309       14.42855830438913       20.65325956670179
H           12.01064314131044       15.46597859981170       19.22671226022387
H           12.70944673254054       13.14558045560445       18.68906108628757
H           14.10285543612710       14.23205620031952       18.58864883073158
H           13.89940616705897       13.18080671623278       19.99434708244646
H           15.85683369851839       15.43606977435213       23.89014695270421
H           16.83414989654432       16.72168532400595       23.17085587965715
H           16.07098086273518       16.17415012818367       26.19148248831524
H           17.27173666139014       17.30542772812321       25.56415521526062
H           15.95845013962907       17.88902435508908       26.58907435088479
H           13.73645650959271       16.10370081964166       25.17839015392048
H           13.59117076811420       17.75947396391762       25.77334157827815
H           13.24638571899158       17.39558472376795       24.08043670005874
H           14.97629165455956       19.53451580233909       24.80915316972304
H           15.01194929653853       18.99118003727716       23.11993169423532
H           19.15621240871145       19.84465324234241       23.83722232847124
H           18.34022688655787       22.61078971973817       23.33494633231838
H           19.43422061850589       22.18846011079924       20.78285856594201
H           22.17095631631615       21.78393910196423       19.77776645618692
H           22.74589273826041       22.78979665134095       17.98010673570226
H           20.58647503497403       24.28610051703784       16.42839930957529
H           22.51204020237185       25.38659000456388       15.31162427254669
H           23.63996325215615       24.38923785153508       16.23161106143820
H           22.59833285170919       23.64889365421821       15.02158688571962
H           20.93754472540390       25.19292046544366       18.68540718767264
H           22.68266595786038       25.24112816356476       18.42552311687902
H           21.61694954568870       26.28332763811526       17.47824693858669
H           24.41610891919901       18.84004831767028       16.58986564770825
H           23.03155121344094       18.04560645928464       17.34185328767945
H           22.56839332450213       16.77574052951818       15.27603520814263
H           24.26972356378066       16.51451701924864       15.74817298583326
H           29.47761313246277       19.54472769606776       11.44658645415462
H           28.49929583582509       20.98369644593374       11.06784841467310
H           27.86397609797996       19.71473697113224       12.15183474726601
H           28.24718548581690       18.89147116681547        8.09395912523811
H           28.35650958669853       20.59086808694686        8.62353487154913
H           29.63019559318271       19.43306916997970        9.04013671921034
H           24.93460287524452       17.88306119454887        9.16895183738444
H           26.01661385769330       18.67474483929331        8.02188989838681
H           26.57968689160895       17.27550243335457        8.96137742162214
H           26.01675177217194       21.12112767086382       10.81141025999519
H           26.08101724534906       20.96008146435265        9.04874399910504
H           24.68559512473027       20.35028255863259        9.94282411084205
H           23.50593375822539       19.03681390676564       12.56274198357428
H           22.12518173675672       18.28172085729229       13.40059937049174
H           22.29129403269685       20.65853209244483       14.02998443967239
H           23.96366403932866       20.43073483520459       14.57615203301351
H           20.29607371837894       20.76228105295244       15.30951672057165
H           19.64715558711841       22.08621482601203       16.26838148986240
H           20.69884081185693       22.43643526742243       14.88353139817357
H           21.08687319556753       19.63665405584558       20.65265910553097
H           19.83482038723391       19.84211221216473       21.88788721676931
H           18.86967096003937       18.57732728311889       20.15693639905971
H           17.94398403876612       21.43972129962074       19.62055525525960
H           17.36730860989735       20.45722110065440       20.98343535605505
H           16.64933276512656       19.46342699004297       16.98993100757206
H           17.51985551002122       20.94264777097032       17.45794186137722
H           19.11934098432115       19.17656036495533       16.69407799162700
H           18.47165089858498       18.07080700382901       17.93617378559591
H           21.83947177516963       22.85736538279813       24.40920677978957
H           20.24117939422956       23.54797333443790       24.79964223476277
H           20.82687874197407       21.89746743116738       26.54206459466792
H           21.13547378069063       20.66523321527765       25.30889229339572
H           18.44064867845887       22.00946843062280       25.87535905489765
H           18.86677862548915       20.32689556696474       26.23579485327042
H           13.33265463346717       17.05003133090882       18.15048047853580
H           14.85858804038613       18.85241906208952       17.59918678603205
H           16.80754463977841       18.49472085178001       21.40978530382979
*
