! SP DFT wB97X-D3BJ def2-TZVP RIJCOSX LooseSCF
! D3BJ
! CPCM(water)
%maxcore 4000
%pal
  NProcs 8
  End
* xyz 0 1
C           10.18305385353376       16.34878731909582       24.06879606554089
N           11.45570898016060       13.84077615429368       24.32772634193725
O           10.14562688697544       15.03656612395323       21.98999897201104
C           10.97890705469348       15.72864333512737       22.92029439281207
N           13.45193249055304       15.72380706433766       20.77595073901921
O           16.80198114914847       19.31269626700993       24.08137169204090
C            9.31410868603481       15.86279989474886       21.20453410601976
N           19.09432393039611       21.72135061826737       23.07165443023261
O           25.99994196019513       16.62158650460773       14.07451642946201
C           11.95371894409378       14.68806514285166       23.43924808227711
N           20.45978367140671       22.01079380845202       23.16224759719055
O           23.38750671954846       20.71230832704688       17.64421264403552
C           12.22356981602092       12.88460520577796       24.81793265791663
N           21.28852404738439       21.89950910991171       19.65068928771126
O           19.59350564698008       22.86910659236657       18.51612747138304
C           13.54512849251713       12.70766483862624       24.44016162911315
N           21.67780287121677       21.67832898525174       16.55490866583007
O           19.65618666949867       19.49436340884101       18.54976072570165
C           14.07636970136502       13.59056644974154       23.51827690823274
N           24.01407754199099       17.71974767525251       14.02857698932237
O           22.44028252174793       22.16712341672204       22.09617908752493
C           13.28463351222124       14.61475927131975       22.99815117444131
N           27.92878754388077       19.35250609878000       10.08335588535838
O           16.42346385306147       21.50856771780884       23.84390594872778
C           13.88742726302436       15.57951488651184       22.07252487881539
N           16.84699861985841       19.75344314769132       19.05557605497900
C           12.62755356474921       14.78216230223373       20.05882023687916
C           13.46733216820503       13.64345993745857       19.48057531103947
C           14.91681639049968       16.46031105057994       22.33372061031356
C           15.68559588515046       16.58650738577558       23.61095161120186
C           15.15077467446744       17.61921871797811       24.62957222608636
C           15.88416055711672       17.41709747652948       25.95846574969023
C           13.64832564319760       17.45132842493792       24.84633314797856
C           15.39224547246166       19.04462345011260       24.12212391348453
C           17.17882493331039       20.56780256261625       23.96229919726608
C           18.68881607816963       20.70884720824387       24.03873074649159
C           21.24015492246497       21.92279201678246       22.07368606606614
C           20.50786018116160       21.50645406748828       20.79711197760186
C           20.77438300387007       22.54843285196798       18.60418287688765
C           21.78170533903438       22.81195342843592       17.47913922220690
C           21.57139030219815       24.17708785049036       16.81021976036228
C           22.58402566190730       24.39285292651116       15.68830525338382
C           21.72597204641256       25.26779423294673       17.86990103936999
C           22.53709246627002       20.67109173708462       16.75191254928596
C           22.56639950583895       19.47626584901909       15.77833518380932
C           23.51013856849217       18.39737883315167       16.31129141681580
C           23.60155718774844       17.23319377252253       15.32525353957345
C           25.22365888244076       17.40906728756245       13.52950477374788
C           25.57118756623241       18.06297790411704       12.29504086895187
C           26.04648957733485       18.57071744750836       11.31156693495355
C           26.46261247353695       19.28005882801062       10.10626001769186
C           28.53480327467749       19.78442880012834       11.32520250683076
C           28.48823797311943       20.08869985655031        8.96926457949300
C           25.96764977097336       18.44342150809423        8.91289604315853
C           25.74966874757553       20.64965861150991       10.11884609987012
C           23.11718698023422       18.69399114621858       13.45664555157581
C           22.99437213025753       19.91566091259279       14.37499868081224
C           20.51340056494565       21.68147409943545       15.69304882395664
C           20.25755454580582       19.98955751504338       20.82180071276798
C           19.15583946458633       19.49760396747961       19.88152262473747
C           17.84829370175064       20.30906845320233       19.94552684863735
C           17.38791913648293       19.76548528996850       17.70670728190543
C           18.69172232791341       18.96319248238899       17.66064186116045
C           20.96847164794695       22.40315610572328       24.46665715845840
C           20.60562749179622       21.33938183036128       25.50195120695283
C           19.09863171930370       21.08428418018605       25.47460812336845
C           15.13994065397791       17.18894583603857       21.12540215105123
C           14.21473847143574       16.69172193762362       20.17937262953858
C           14.17100507678945       17.21404038758335       18.89369645970976
C           15.05300250085027       18.21433242955279       18.56521030920498
C           16.02663521237504       18.70013701304870       19.46759143315929
C           16.05656718052376       18.17740146873784       20.75475484362304
F           21.29292455402584       18.89181972005512       15.68644444762682
H           10.86779730475097       16.75242152365990       24.80736814465350
H            9.54811541948838       17.15147500598556       23.70464234864002
H            9.57315021123961       15.57897251870514       24.53121574314222
H           11.53057402639398       16.51610719623224       22.38119112300045
H            8.53402586538291       16.34053460102551       21.80238367775514
H            9.90187839998044       16.63342894257501       20.69201007146571
H            8.85364366585217       15.20340781076778       20.47184964891672
H           11.75032893992578       12.23722844499092       25.54372622940059
H           14.13675267072396       11.90701271359030       24.85335155620976
H           15.09860127840648       13.49007246547407       23.18323394162146
H           11.87189740385384       14.37886729782623       20.73525262167881
H           12.12148421730755       15.31919911141844       19.25350931719989
H           12.84110625382205       12.98646888931707       18.88534288435066
H           14.26098698224769       14.04168041678174       18.85232808032614
H           13.91747156253457       13.06412356281603       20.28354440761008
H           15.69830342727191       15.61653580615009       24.11035372839082
H           16.71553757952125       16.85783755971885       23.37040751988778
H           15.63482978076451       16.44514566093790       26.37571651710666
H           16.95972007277678       17.46778306711192       25.81170402921836
H           15.59435404026166       18.18294027158770       26.67416602109250
H           13.42454168813736       16.42691148298011       25.13169645802581
H           13.30363247776370       18.11480489373385       25.63563845806679
H           13.10454687385530       17.68398764271518       23.93505696110015
H           14.92286888755221       19.78073827421980       24.78283032221882
H           14.98190278101688       19.17651583728761       23.11646065809312
H           19.14721013242853       19.75252417543845       23.76686740022886
H           18.53762015318592       22.56354693475626       23.22895215626682
H           19.56319798938930       22.05114766184282       20.75036989340187
H           22.26662573189246       21.64197166137304       19.65683892185627
H           22.79467635023960       22.77834995842125       17.89269335078633
H           20.55413812422416       24.23090599695871       16.41524037837558
H           22.40577631833241       25.35208034387101       15.21028463487415
H           23.59441728987333       24.39126972926102       16.09174230920411
H           22.52087494696986       23.61427922782315       14.93396020211202
H           20.96243095858833       25.16642225138741       18.63735394705733
H           22.70320398199894       25.20639735898890       18.34480052338986
H           21.62476836324853       26.24820702685875       17.41229461204749
H           24.49218901930286       18.84442643902549       16.46607156669064
H           23.14203820306702       18.04725130838405       17.27590295694057
H           22.62388342852131       16.75056808474294       15.23032024918886
H           24.33685838911692       16.50244367453689       15.66506796022012
H           29.60667435576964       19.59773238623229       11.26322659685849
H           28.38607341131709       20.85570370079866       11.53283777607767
H           28.13341638398101       19.20577701038886       12.15504990840937
H           28.02972988955657       19.77435480833629        8.03771945852237
H           28.38152976984968       21.17928753216378        9.07542182963093
H           29.55217551167716       19.85926241604355        8.91863168533063
H           24.92579837183941       18.17362596441955        9.06126732999194
H           26.04841314599906       19.00499729133521        7.98716618702934
H           26.56006625697436       17.53657666572907        8.83568490569039
H           26.03077614018885       21.21711394704973       11.00179105647675
H           26.01168103919995       21.21633930206015        9.23020360278772
H           24.67445810900586       20.49915084789671       10.13053947655900
H           23.48939989462805       18.99519517592765       12.47754055389679
H           22.13172899354738       18.23013800426627       13.34392685615074
H           22.26428388756774       20.60553502171805       13.95571863734421
H           23.95565935756054       20.42281347038625       14.45971201182737
H           20.27697465083596       20.68794769050751       15.33701698928505
H           19.66438983264299       22.04318274591938       16.27344638339362
H           20.66794655560320       22.34698818609020       14.84394475055181
H           21.18563253600984       19.48668425584381       20.54028228730652
H           19.99343589685991       19.69024710737130       21.83233641053189
H           18.92287208968076       18.45065684104116       20.15282978199478
H           18.04662021008120       21.32215318582214       19.58300673705677
H           17.47553646478333       20.37181265642930       20.96640010962594
H           16.68558246702363       19.35307584696385       16.98888920980691
H           17.59693060099401       20.80749219406824       17.44561755693912
H           19.14254209990755       18.98954994613341       16.67108055884881
H           18.48186473676436       17.91673536935318       17.93584897727693
H           22.04751633103566       22.52130129517643       24.36918369181485
H           20.52265892666641       23.36527368034971       24.74127514325237
H           20.91131050428062       21.67865066842096       26.49032035933121
H           21.13841871478029       20.41528613069599       25.27265584969943
H           18.55781151786423       21.98627069576593       25.77088619583337
H           18.83130802999529       20.27845976652523       26.15682594091500
H           13.45831896562427       16.86304596931580       18.16308470169860
H           14.97943380876040       18.64828989810644       17.58169866972880
H           16.78059774248825       18.51249502820240       21.48055782434773
*
