! SP DFT wB97X-D3BJ def2-TZVP RIJCOSX LooseSCF
! D3BJ
! CPCM(water)
%maxcore 4000
%pal
  NProcs 8
  End
* xyz 0 1
C           10.01451697942460       16.41693196541892       24.00637071482465
N           11.31790190233380       13.95364873183159       24.46763792819760
O           10.05221250969061       14.94526637222622       22.03177416012827
C           10.84648217962610       15.72870775045412       22.92409580247435
N           13.41323550072628       15.66030935252049       20.86187602204566
O           16.74413402611340       19.38109064038506       24.03431148898041
C            9.15485378720017       15.68118752235726       21.22724592578222
N           19.13027819406800       21.68964893546741       23.18043566999810
O           26.43808642379543       17.04618599802998       14.04027623302327
C           11.82845329792910       14.74897233265650       23.53923784915935
N           20.50870391745795       21.91654088945475       23.24084576249210
O           23.47298479742418       20.80940665445084       17.70505823513107
C           12.08329323395183       13.04017289393207       25.03784633801270
N           21.25840204252026       21.79029574630042       19.72825447471024
O           19.51452841084899       22.66868907808873       18.59525798146253
C           13.41358986787876       12.85245426562341       24.69844754743051
N           21.69556739905954       21.66064341839026       16.62798034961156
O           19.76132291654567       19.29511697041145       18.62703786721561
C           13.95899515541182       13.68379305360056       23.73690775237505
N           24.36984628631013       17.98024854718297       14.01766484717054
O           22.47526606723212       21.97775525118968       22.14277001254758
C           13.17159691881320       14.66848835436352       23.13851956011414
N           27.96504490063969       19.44080257436095        9.71344609857556
O           16.48398502733152       21.61296844757035       24.09626909956118
C           13.80092242096741       15.58200116590075       22.17935628529376
N           16.93700441472157       19.53154810353415       19.04772236439491
C           12.58504299210328       14.70926416875675       20.16251095807678
C           13.42721846196637       13.59713996946339       19.54019663872426
C           14.83698884670444       16.46066869972602       22.42526857032618
C           15.54447808569328       16.66402872861245       23.72741824040836
C           14.99319237679030       17.79534046931353       24.62704158175158
C           15.64204460315130       17.68108769883164       26.00945512699156
C           13.47547508169447       17.69198109853765       24.76217530429323
C           15.32031525111773       19.16911691818522       24.02717127350635
C           17.18461005814555       20.62151939459134       24.08627590455442
C           18.70321250970645       20.68096124694723       24.14773831146109
C           21.26619944495363       21.77988667136546       22.14225651771003
C           20.50537556362866       21.36575521874345       20.88285139406176
C           20.71287964428050       22.42104650608858       18.68767248829719
C           21.70707206303088       22.77682168198093       17.57812457082929
C           21.39371234836537       24.13720427650332       16.93860016325048
C           22.40091058265050       24.46392765908989       15.83910475166733
C           21.43842712149216       25.21323995426169       18.02369148989035
C           22.63259777172672       20.72156245062114       16.80720077772787
C           22.75992877600878       19.55603629073768       15.80583447475618
C           23.79020634541080       18.54983604253363       16.31973998165634
C           24.00423809556401       17.43175573618498       15.30363438485725
C           25.58409939260749       17.74563032689861       13.48906870319256
C           25.83278956674878       18.34296583336147       12.20199999957315
C           26.19873707097902       18.75817111552341       11.13283856103817
C           26.50494543104316       19.33061106508457        9.82572755043904
C           28.58266359696696       20.20249589729623       10.77975461602079
C           28.45602000784368       19.88177374113918        8.42473248988186
C           25.96232247152545       18.34549086531074        8.77573488622420
C           25.74711452964564       20.67209199372483        9.71455392195732
C           23.39170260651117       18.88420256614558       13.46451979039801
C           23.15606384375559       20.06413918796602       14.41528992349984
C           20.54172501377511       21.59291196805708       15.75545060975460
C           20.28759940714597       19.84425017258964       20.90682135561462
C           19.21945873008757       19.32398643489737       19.94283262208140
C           17.90658571952174       20.12787919150940       19.94501617022711
C           17.51143667135098       19.51121339640414       17.71366640389064
C           18.83151406773049       18.73286845684944       17.72017714139900
C           21.06097600341947       22.28514576381117       24.53462036036985
C           20.67994652349238       21.22740887261351       25.57082677786354
C           19.16370526725760       21.02552430510251       25.57543874190504
C           15.11808636393833       17.11176805269869       21.18627146420631
C           14.21656684495692       16.57667940170664       20.23830503416168
C           14.23518749784853       17.01655978838399       18.92165710478393
C           15.15092307232199       17.97772340769557       18.56686056154703
C           16.09311205781064       18.50641785346489       19.47751235925968
C           16.06844319283751       18.05830715681428       20.79337541411969
F           21.53884348368533       18.87300074689961       15.69867682681779
H           10.67471828957530       16.90800362215209       24.71439841673625
H            9.35675365944969       17.16151415553968       23.56647675441425
H            9.42558122757238       15.66755858307627       24.52785463469338
H           11.39326237268252       16.48722784798123       22.33715971631317
H            8.31727731948934       16.07039671707124       21.81080618024835
H            9.66942760859966       16.50987244776693       20.72787663113620
H            8.78153614154394       14.97923186784596       20.48436856535973
H           11.60318088970161       12.43839397531087       25.79910867177353
H           14.00210189829111       12.08295249853890       25.17094347513845
H           14.98904081791010       13.57107116541661       23.43201387359660
H           11.86218827861009       14.28384068340694       20.86065433287438
H           12.03645042259270       15.24400183925307       19.38201827299689
H           12.79244123881962       12.92387583879954       18.97299490223427
H           14.17778666550729       14.01901853360436       18.87602275292448
H           13.93323991369714       13.02905097144590       20.31750079060913
H           15.48822255819882       15.73938220769025       24.30372060492054
H           16.59598471874058       16.87684886358876       23.52637692921537
H           15.39495665312416       16.72427855058013       26.46188574224539
H           16.72282644364758       17.76096065032849       25.92854130167557
H           15.28466646267138       18.47370047387036       26.66378483752565
H           13.20315922006044       16.71197244078019       25.14717640402990
H           13.10428168940305       18.45158708977312       25.44728986796182
H           12.99590913386036       17.82959273508824       23.79618371866490
H           14.85342807693434       19.97128189493752       24.60693781064627
H           14.97004245080050       19.23472079341763       22.99319236966245
H           19.11106629728504       19.71027829465242       23.84892740630799
H           18.62152462716939       22.55440225506465       23.37739683124089
H           19.54764789125617       21.88946463024147       20.86522225313031
H           22.25006677407373       21.58158587166541       19.74026571826479
H           22.71733037451819       22.81030789838721       17.99887595982895
H           20.38137744360978       24.11267566354487       16.52964905342204
H           22.10691363076199       25.37682669121957       15.32801320621281
H           23.38753965015077       24.61274715496794       16.27081064221718
H           22.47019977449899       23.66342305164416       15.10768028265887
H           20.65219010964430       25.05292132795846       18.75591004993288
H           22.39715927531955       25.20152570656234       18.53613120586881
H           21.29593627531388       26.19359063829255       17.57838118400209
H           24.72323126934079       19.07964012776933       16.51048022143319
H           23.43843627178620       18.13524420186236       17.26485190111627
H           23.08066227204147       16.85405049422949       15.18978771046093
H           24.80786615399269       16.76977327672572       15.63138094399658
H           29.65044424759757       19.98618800474896       10.78367551745370
H           28.45490006781033       21.29018120130293       10.66540234165212
H           28.16836391532010       19.89680224440981       11.73789148181409
H           28.06631774625245       19.24676856433486        7.63521329689785
H           28.20985843907101       20.93079541352270        8.20365498964370
H           29.54117339952993       19.78596568913562        8.43240021940180
H           24.95717827515273       18.03638872533612        9.05178081324260
H           25.92063619379002       18.81052211033569        7.79471163638683
H           26.59743755507907       17.46425435004114        8.73279488466786
H           26.05118456349775       21.35156647578515       10.50853822978678
H           25.94564865304975       21.13412083002351        8.75017019233713
H           24.67900258628122       20.49123364836879        9.80282487801111
H           23.74461646819407       19.24648896540977       12.49987009271031
H           22.45169378790013       18.34065356727369       13.32734480583213
H           22.37153535985850       20.69975874966668       14.00847772295797
H           24.06923957586098       20.64992182221523       14.52170802800609
H           20.40090681657404       20.59695465099575       15.35701867526620
H           19.65834167403615       21.85053163778026       16.34062423036234
H           20.64122102300446       22.30533675629415       14.93687550092242
H           21.23278731512066       19.35828897271148       20.65231606199347
H           20.00313110811870       19.54782834298684       21.91375582160760
H           18.98392851797548       18.28198600505539       20.22938428029339
H           18.10965271126282       21.12964600705940       19.55281448266707
H           17.50738141352313       20.22304868342164       20.95353091536343
H           16.83427272262081       19.06650490905374       16.99057380287923
H           17.70760291059075       20.54947578537110       17.42693114301059
H           19.31269775032699       18.75219793588301       16.74377220944848
H           18.63202322634545       17.68749180868170       18.00640193420553
H           22.14120461596784       22.36239611325716       24.41189763129064
H           20.65923702477537       23.26421513468721       24.82172119241202
H           21.01848915287760       21.54753519728032       26.55556298809863
H           21.17558884577158       20.28591876978191       25.32198769028367
H           18.66203618432030       21.94214895354546       25.89627470298288
H           18.88860187200306       20.22171226159563       26.25753130354222
H           13.54558381511161       16.63177421773078       18.18651829051799
H           15.12754597241346       18.34491898280033       17.55408958138623
H           16.77517621377643       18.41955132135136       21.52270263725225
*
