! SP DFT wB97X-D3BJ def2-TZVP RIJCOSX LooseSCF
! D3BJ
! CPCM(water)
%maxcore 4000
%pal
  NProcs 8
  End
* xyz 0 1
C            9.32986764199756       17.30811432292900       22.01686382614687
N            9.76547981770881       15.58564257706838       24.25583665307466
O            9.79938958522723       15.00928187596353       21.25156637453398
C           10.30722291766071       16.13593260271713       21.97120093325295
N           13.31156558171680       14.91667606174820       21.59780407299461
O           16.18486266527665       19.69545472462717       22.93094942013840
C            8.53411195582781       14.51589395423380       21.65261148696686
N           19.11079181663243       21.28656309172810       22.36812622343470
O           28.49222539171433       19.18958472738646       13.51744439094866
C           10.74078984198390       15.72430564237452       23.36689360630919
N           20.45565566267530       21.32661992758597       22.75184513463822
O           24.97265486223479       21.79861074848282       17.48110943337166
C           10.05482237939173       15.20242285350243       25.48993194779825
N           21.64852963089146       20.64090990598507       19.53610780789758
O           21.25903179800438       22.77558935515035       20.09187131408131
C           11.34490353800140       14.93336661227259       25.91311207252456
N           22.80566548110883       21.25520617152996       17.17030174978585
O           20.32351824462048       18.32340845271361       18.62397050587508
C           12.37059338048213       15.07815024737934       24.99468328107813
N           26.33260983736303       18.78930956026195       14.09792293287460
O           22.61371739838189       20.95529180878713       22.23190685696226
C           12.08611447398901       15.48043846317430       23.69081476262445
N           27.13313780170853       20.59644069845274        8.61373537681001
O           16.34104370587759       21.92700495884058       22.72895184269591
C           13.18933974083841       15.66883488622542       22.74412517388368
N           18.02377477629025       16.97845548465709       19.56999498174044
C           12.62097697106302       13.68330319127585       21.31955786026386
C           13.40055756741891       12.48645113790862       21.86251244202624
C           14.22286366931331       16.57834111905030       22.83306516955704
C           14.46641283751219       17.55265339113527       23.94170104584363
C           13.96834955677985       18.99604856777278       23.69890742817125
C           14.11650827824393       19.79202177042956       24.99897865240465
C           12.50416065773028       18.99480357194545       23.26233675582338
C           14.78902474215944       19.67393318167580       22.59256329828427
C           16.82511755014385       20.84323702148290       22.97565764179692
C           18.27782804883451       20.66113295019997       23.39346715948006
C           21.42487603100693       20.86310575437718       21.94622408160464
C           20.94408439757306       20.13090994144142       20.69308140382606
C           21.71649039802921       21.95213886463156       19.30145187708256
C           22.41564656132205       22.38149800721103       18.00996532912801
C           21.63505640625966       23.47881621453040       17.23593770180868
C           21.96539740883493       24.84289335205610       17.84418105213377
C           20.11844057540976       23.28320935024398       17.21935955650158
C           24.12098145620156       21.05564593491523       16.98872156732303
C           24.60306538497703       19.85756409061316       16.13875977409867
C           26.10041984134967       19.63578818437015       16.37224887660535
C           26.63633176576616       18.51269333163181       15.48333913878761
C           27.29169939143927       19.17972874472041       13.23772272722645
C           26.81451703598801       19.57481373051606       11.93761823001657
C           26.55066700814633       19.97725257505028       10.83266289590138
C           26.01961852077216       20.45317780695303        9.55888955725439
C           28.21057570521548       21.43582026894810        9.09720636710208
C           26.75231762102012       20.97804340546898        7.26957256650268
C           25.03632350549277       19.37879742692969        9.06224545713497
C           25.25509251721632       21.76132008687889        9.85560061168018
C           24.91812620140231       18.90031448318911       13.83723991532864
C           24.32294309612838       20.05735688354197       14.64647034760016
C           21.73312612148865       20.54130349521476       16.49672757882678
C           21.19452860452410       18.62929712960405       20.84299048763271
C           20.28166947703553       17.79442481142859       19.93964973025796
C           18.84268170265679       17.75417160417410       20.47832743559504
C           18.05543070878139       17.55838871460475       18.23882392599922
C           19.50259540836548       17.57090493525718       17.75205863145681
C           20.74870109633270       21.99454808799322       24.00792839731195
C           19.96822870039564       21.30316127812708       25.12508589375090
C           18.47999919180717       21.29689115059961       24.78019276184507
C           15.03719115523626       16.37040615660025       21.68025162663761
C           14.43839659279879       15.32594651598607       20.94002668054853
C           15.00056919109129       14.87980245554693       19.74823567223935
C           16.16002237108331       15.47428602945959       19.31398615293532
C           16.78828972464883       16.50240868637339       20.04497796461409
C           16.22524545266695       16.94880348991034       21.22701556073025
F           23.93982578957246       18.69992326262198       16.58021636070769
H            8.98031699346904       17.52785619563763       21.01402925024217
H            8.48516607946079       17.06635427019843       22.65436034728509
H            9.83213370871026       18.18044724532677       22.41933897666702
H           11.19206904893857       16.41426697826412       21.38890242794556
H            8.44721409819299       13.53168011086139       21.19413015914008
H            8.46892559954139       14.42595470588460       22.73970704023295
H            7.72571909089218       15.15747680079437       21.28985872741779
H            9.20672575941736       15.10959296415168       26.15479346381636
H           11.54162619692886       14.61826293048323       26.92481389690403
H           13.39264483601729       14.86749349038481       25.27455986262533
H           11.62856883987038       13.72346797963898       21.76863806825585
H           12.49553692029217       13.59616893036389       20.23786403942081
H           13.52949377611349       12.58000381777958       22.93842233899498
H           12.86330490469030       11.56633142914086       21.65298933235284
H           14.38399687597427       12.43447498522852       21.40116770151614
H           13.97087610628185       17.18822861594305       24.84352225202662
H           15.53937775712990       17.59668013317218       24.13752855492146
H           13.48237049066524       19.36704136543925       25.77210860841767
H           15.14687035231725       19.77197293299288       25.34841939160991
H           13.82659630560485       20.82987731368116       24.84548709488806
H           12.14151217917246       20.01298217744533       23.14445284667075
H           12.39051548952895       18.47207264721196       22.31635510254322
H           11.89439571281823       18.49265383393169       24.00936823820559
H           14.45373337184831       20.70371320177295       22.43797895146737
H           14.69980752461416       19.11431449874014       21.65902982396960
H           18.51899709558660       19.59433677990784       23.41916402225488
H           18.77324676708037       22.23677395606509       22.19534467645309
H           19.87559812449233       20.34185732219657       20.57772420882494
H           22.02719430857839       19.95862282093561       18.89580610971669
H           23.36005769664341       22.83621326788230       18.33878404350038
H           22.01143045967772       23.46532991889218       16.20719060873790
H           23.03205922637036       25.04606505810641       17.78173118571686
H           21.43204636847949       25.63062404314450       17.31806538600725
H           21.66995701836331       24.85817041987364       18.89029158928354
H           19.81667005486386       22.44193614115946       16.61026713005182
H           19.74461646479454       23.14595553636372       18.23320314567113
H           19.64896654144088       24.17756511785621       16.81269462254947
H           26.61891704964720       20.57136287620553       16.15985508081306
H           26.26674991828315       19.39361100621544       17.42236336705023
H           26.16982926608684       17.56229720526764       15.76219532430091
H           27.71988220425757       18.43075229652784       15.58842793135203
H           28.46662190366185       21.15623685690657       10.11801132330289
H           29.08365707906723       21.27180407424273        8.46610953414579
H           27.96907884134663       22.51008837448370        9.07225685512233
H           27.64253748484715       20.92488867936201        6.64426915391460
H           26.02028828753675       20.28057675990388        6.87448150044464
H           26.35332049846311       22.00157434729479        7.20377005893465
H           24.40987061390081       19.76812535917067        8.26539919050490
H           25.59039034702881       18.51740149442023        8.70181084118282
H           24.39433185376739       19.06651951261592        9.88157196299153
H           25.92865776335503       22.51524891382763       10.25433406392736
H           24.79688751192251       22.13991862097830        8.94511675793420
H           24.47580087650658       21.57287223274867       10.58831879967235
H           24.75723162427677       19.06320017790406       12.77178615846787
H           24.43975687441324       17.96325949781529       14.13822059419072
H           23.25419150796694       20.10737851071087       14.45567752497601
H           24.78334048342482       20.99922153556163       14.34655103485603
H           21.99404611329358       19.50370380857199       16.32305347909135
H           20.85276060381943       20.55833623082362       17.13346680616017
H           21.49442426621219       21.02812593573893       15.54897283620574
H           22.24095473869238       18.43200321426697       20.60791215268368
H           21.02263505200568       18.33236318151870       21.87744944187294
H           20.65412231696834       16.75730647773213       19.91071779886675
H           18.46442696622598       18.78335524441665       20.59759143828733
H           18.85156676505475       17.25861573221007       21.45030430089187
H           17.43938290456498       16.97013079787510       17.56137789036754
H           17.67443923518855       18.59427672971417       18.25623416549373
H           19.58207083221428       18.04866562014572       16.77624615033149
H           19.87556879614854       16.53994987972099       17.69504532781756
H           21.82573555430467       21.93449817465021       24.16257981889392
H           20.45592197879753       23.04778230888872       23.92753811655639
H           20.13369629561442       21.82784374295039       26.06475106496006
H           20.32724154821430       20.27827215398693       25.23090208931807
H           18.09841078099128       22.32091020975122       24.75043432530764
H           17.91455575482014       20.73906699386068       25.52667706704385
H           14.54715048036385       14.08313297185600       19.17917972646368
H           16.62093504984677       15.12653731985001       18.40209543638456
H           16.68603390709861       17.73110614223984       21.80555177067617
*
