! SP DFT wB97X-D3BJ def2-TZVP RIJCOSX LooseSCF
! D3BJ
! CPCM(water)
%maxcore 4000
%pal
  NProcs 8
  End
* xyz 0 1
C            9.44069864051458       17.60650421173338       22.30396193962050
N            9.80061717860345       15.65050334828156       24.35617060616564
O            9.67687832233851       15.35167060698546       21.32710225482247
C           10.31249428292692       16.36815834131011       22.11479427864607
N           13.18084139265555       14.97127414198426       21.47613119966068
O           16.26970143993307       19.46547797260931       23.28699405883081
C            8.37229563883043       14.96577778943193       21.72821419905642
N           19.07149112138076       21.23741925824940       22.46759893078074
O           28.22795745183965       18.74381069429988       13.73914368894289
C           10.75572942277687       15.77721888120946       23.44315530096020
N           20.44849793172136       21.33496291353675       22.69882471185123
O           24.67748764925126       21.83403865313205       17.40575336837668
C           10.07907759720847       15.09444773934358       25.52299489658785
N           21.38962513379521       20.90479583273727       19.31414838023853
O           20.94167257050511       23.03483304610669       19.85840650620712
C           11.33706289280737       14.61886811989546       25.84957030472157
N           22.49435356478892       21.50735178910709       16.95189439024479
O           20.00650684194245       18.66544953801187       18.39367096341968
C           12.34391779718115       14.75370808392778       24.90988892112713
N           25.98901445786909       18.72660984626702       14.12548816452557
O           22.54441616776468       21.19347600871959       21.88841503143719
C           12.07203168283187       15.34569502797047       23.67750332541046
N           27.76289059992455       20.05691931159839        8.73174802169128
O           16.37200533017291       21.70194568382634       23.13142699847542
C           13.16369737591787       15.55766136257280       22.72111264446103
N           17.78631256738585       17.22555474244617       19.39818340195549
C           12.39316758057832       13.82990483851960       21.08343073127166
C           13.02223749603479       12.52839621985375       21.58080829818519
C           14.25942733617486       16.38075775161224       22.87936289565574
C           14.66336983724038       17.11938938557202       24.11650905162925
C           14.19277081701811       18.58625577836943       24.23266320687928
C           14.59626120159363       19.12265094569871       25.60871679022735
C           12.67713212187847       18.67923496284755       24.06648088257404
C           14.83955345104613       19.44472925589989       23.13762480291322
C           16.89525277269950       20.62058708041995       23.27942787749284
C           18.39400484477071       20.45676451518785       23.50132907536348
C           21.33927858531564       21.02266039034227       21.74358614165021
C           20.75496324066945       20.36163009336829       20.49413765305792
C           21.42842108374890       22.21903581335546       19.08068643164217
C           22.15991382153985       22.64438522721762       17.80437679999051
C           21.47680320783141       23.80266377875176       17.03366254391094
C           21.92968052040786       25.13665060344285       17.62870489073316
C           19.94898211121587       23.74619287185880       17.02855150309685
C           23.79170737100979       21.17479595796742       16.86056705986643
C           24.21129128952935       19.94044940889151       16.03497011118499
C           25.64352640480215       19.53962950113507       16.39723910770867
C           26.12499262199067       18.38247614556636       15.52206535822394
C           27.07040415050649       18.93139290136605       13.35346824947574
C           26.80138094721392       19.37889235611306       12.01110171715318
C           26.75769657685024       19.77697474843325       10.87504331105361
C           26.55734360439525       20.30887336697524        9.53187042680822
C           29.01086831370782       20.38532827967536        9.38910231201963
C           27.73290309023085       20.62034292356917        7.39800695209713
C           25.36729034576479       19.54501497265960        8.92174130585941
C           26.19431157678912       21.80100728565548        9.69570779418268
C           24.63535866523369       19.02703451969036       13.72755584561576
C           24.09847800449434       20.21497951326333       14.53260954450415
C           21.38925035423890       20.89416250660026       16.23627311793763
C           21.00401058258604       18.85420127204129       20.57067944226289
C           20.05602266634854       18.05483106924070       19.67115613644874
C           18.65759432562725       17.94670485822567       20.29998584309536
C           17.72295220065541       17.89831835566067       18.11349050474074
C           19.13339406718029       17.96423398393475       17.53029449119205
C           20.85260653790340       21.87265738671172       23.98667809108178
C           20.25388147816266       20.99541727373049       25.08603793632344
C           18.73623943478478       20.94193550776061       24.92252899969628
C           14.98773807021939       16.31383459393889       21.65355592922113
C           14.29433305272807       15.41087723270305       20.81541521142766
C           14.76655190550266       15.11621439650763       19.54063398195176
C           15.90856730117260       15.74571790785161       19.10899371880123
C           16.60536188268128       16.67065059689194       19.91415640565040
C           16.14810843253926       16.94148497147351       21.19285781171311
F           23.38731594254380       18.85404776110786       16.37382245156175
H            9.03169140837747       17.91164496225036       21.34410480608298
H            8.63267933007893       17.39236090627656       22.99840538997788
H           10.04110976750524       18.41690052097128       22.70836470844237
H           11.19446078687477       16.62144179853370       21.51456896436743
H            8.17268237816208       14.03237723758820       21.20332692628245
H            8.31855874617755       14.80166518762952       22.80853560451931
H            7.63042960179268       15.71604427384616       21.43434211862181
H            9.24943403942864       15.03091670016601       26.21459924034231
H           11.52158197346299       14.15869200863066       26.80715893205573
H           13.34024223275569       14.39109784501898       25.11593517447696
H           11.38347867538667       13.94030584374869       21.48146413160596
H           12.32283126515710       13.82343957442888       19.99304787461119
H           13.03925842969517       12.50857729669512       22.66867730687897
H           12.44584276730198       11.67996517323153       21.22536138466166
H           14.04287658884074       12.43939574401661       21.21631148585651
H           14.27185625982883       16.58822023926407       24.98587323738687
H           15.75347822853271       17.11197638070083       24.17557416126728
H           14.07491994092541       18.57779323878482       26.39175091601642
H           15.66700904576757       19.00852061057985       25.76493918824723
H           14.34661747686151       20.17799547643343       25.69694104034593
H           12.33806699255924       19.70260992437456       24.20901234444199
H           12.38771046361708       18.34955351349910       23.07193181075634
H           12.18033134907550       18.04650489659746       24.79724131207695
H           14.47243805998098       20.47420282692374       23.18172307594879
H           14.62576815578391       19.02304443945976       22.15291147431986
H           18.67141047162784       19.40494430711483       23.37710425670182
H           18.65936160933398       22.17527121975613       22.44434625598178
H           19.68488210457623       20.58921876056335       20.46306132012763
H           21.80613603140609       20.24392516552665       18.67639872684148
H           23.12688171059498       23.02604419595444       18.16314505553707
H           21.84259400101270       23.74991599697432       16.00211871965264
H           23.00917915869789       25.24890016281439       17.55250473402255
H           21.45632713407574       25.96312388307596       17.10380258638331
H           21.64873481354233       25.18478807670473       18.67790066503905
H           19.56347673857770       24.60672711066868       16.48665802175865
H           19.56934271873074       22.84653612304967       16.55467155149746
H           19.57364103536238       23.79161698193369       18.04877494859429
H           26.28666048319809       20.41066602342294       16.26375800018961
H           25.68087026870671       19.25390126287225       17.45016410258760
H           25.52941012805724       17.48576331493246       15.72540557493599
H           27.17659835827583       18.17228386568090       15.72130822540819
H           29.03409818604132       19.94908447477384       10.38720625256411
H           29.82532615404403       19.95422582139721        8.80523176655071
H           29.18780307811019       21.46956389219168        9.47354012745904
H           28.56582929296036       20.19497218520651        6.83826754271569
H           26.81153904006421       20.34803076038353        6.89282520074389
H           27.84293859711979       21.71581344286909        7.38755126764758
H           25.00378166445881       20.04390900955811        8.02806058714179
H           25.67810911649094       18.53588739505151        8.66821172362342
H           24.55488318301564       19.49511917554059        9.64076642099923
H           27.02669114583482       22.34889283441912       10.13402105710707
H           25.94687403207473       22.23501020859866        8.72972559953103
H           25.33423830903435       21.89730286600392       10.35422585386405
H           24.61791872409492       19.25858963534530       12.66097399799088
H           24.01379755131603       18.14500999853335       13.91898663793126
H           23.06439662735764       20.39968119913229       14.25088181789951
H           24.68831126954795       21.10815835802277       14.31827878925890
H           21.61859093380625       19.88002403744212       15.93324779793819
H           20.52671349394518       20.85262952061504       16.89858950950489
H           21.14048738126728       21.49102994013425       15.35758457982963
H           22.04125083262468       18.66754841776369       20.28875113419678
H           20.87030223225361       18.51357185718372       21.59795082491083
H           20.44768837605122       17.03026254716063       19.55421589049464
H           18.27565957041957       18.95713416066994       20.52197454888705
H           18.74630900299689       17.38323599142969       21.22920193813554
H           17.06766360450362       17.35675808941948       17.43549445883685
H           17.33798159455264       18.92594639246865       18.23228600965022
H           19.13868329346912       18.51017354730685       16.58702018459411
H           19.51183088716978       16.94501166594828       17.37262231092287
H           21.94231914468709       21.87222414985841       24.01109818884718
H           20.49133345013266       22.90362166244382       24.07393510649476
H           20.51521032152959       21.39823063893432       26.06513124217073
H           20.66917878391389       19.98846351851925       25.00448023847007
H           18.30989099884431       21.93858123245040       25.05910138007917
H           18.29330975515250       20.27106110990530       25.65845133179955
H           14.25952568836417       14.41118455810385       18.90011560941655
H           16.29706353932312       15.51078842758446       18.13013784302091
H           16.66174213371817       17.63603419403354       21.83679964054569
*
