! SP DFT wB97X-D3BJ def2-TZVP RIJCOSX LooseSCF
! D3BJ
! CPCM(water)
%maxcore 4000
%pal
  NProcs 8
  End
* xyz 0 1
C           10.09473636824600       16.24518084611114       23.99276010388839
N           11.47021452147903       13.80348137339893       24.35508354351641
O           10.13382597126089       14.82441451250062       21.98127960510038
C           10.92275100234312       15.60935786537947       22.87671681677779
N           13.46696956585601       15.69347436256144       20.78912001481562
O           16.74108410931401       19.38042669750942       24.04669865047595
C            9.18244843183215       15.54529222303244       21.22841641182986
N           19.11452686111184       21.73337007247850       23.13465317982050
O           26.28172457471253       16.86269945833564       14.13872261668110
C           11.94480510547536       14.64400447026808       23.44669428792683
N           20.49118718312806       21.96477071037211       23.21528291875408
O           23.54449250429323       20.89958148376618       17.64628522918922
C           12.26927500786530       12.89881726126335       24.88968935450095
N           21.26278705825381       21.89203592214729       19.70095777188352
O           19.53974722498169       22.80826711203109       18.56527894923350
C           13.60267786817393       12.76566437549646       24.53516945038278
N           21.71472773162526       21.70536355723826       16.62279506569149
O           19.70315919938965       19.45292252482610       18.56471702459917
C           14.11012828645407       13.64337720050525       23.59596625504582
N           24.22542928211385       17.82381590366117       14.11650683932952
O           22.47029975408916       22.02526512740678       22.13497790681104
C           13.28560088650854       14.61922294115890       23.03245241841944
N           27.88285900966211       19.35253158456202        9.88603369889750
O           16.44323167964459       21.59849739099177       23.91272933991869
C           13.87759351445287       15.58114228178517       22.09738904412726
N           16.88790107895894       19.68746692081166       19.04107429742174
C           12.65061456253327       14.74246286137400       20.07639206251267
C           13.50045323298314       13.63569498316880       19.45487519292242
C           14.89240608818979       16.47927599255440       22.35920309555664
C           15.61156370814210       16.66314148902057       23.65865639041191
C           15.03306631305358       17.74617562462224       24.59869138506409
C           15.68602122645700       17.60105661138551       25.97634473859027
C           13.51842081983044       17.59766222388747       24.73291473314766
C           15.32339542772588       19.14582377105040       24.04597250829001
C           17.16141950018081       20.62560917314255       23.99124641027043
C           18.67690467398776       20.70556258030981       24.07227457276608
C           21.25884161757653       21.84457369508691       22.12126197480859
C           20.50080290220853       21.46510669848376       20.84758005738115
C           20.73029975407285       22.53032073081134       18.65635236069894
C           21.73836453429829       22.84512811602895       17.54445381281952
C           21.46356528956747       24.19307029192555       16.86274376852769
C           22.49904320047827       24.46055429723697       15.77300104375190
C           21.51236793823514       25.30043077521170       17.91512033144074
C           22.66114350827702       20.77675354540872       16.79404290953901
C           22.73374204110347       19.55852472577310       15.85103515135720
C           23.74312159247869       18.54606902443378       16.39479604171238
C           23.88532571308015       17.35942468812896       15.44224925645274
C           25.43947423475502       17.57897843373907       13.59231778621019
C           25.70749315518693       18.20084941737789       12.32177556123646
C           26.09165346380256       18.68185333336138       11.28610417491577
C           26.42064428184221       19.32189536107047       10.01587167709493
C           28.56863901116355       19.94713657729816       11.01504583867030
C           28.37892773359949       19.90437214309178        8.64334701544838
C           25.81003642289093       18.43870815523792        8.91369843239206
C           25.74433814107771       20.70972412680580       10.00270528161235
C           23.25690172582734       18.72745278607024       13.54637196569019
C           23.11102676443551       19.97442404209009       14.42614246321300
C           20.55458209110158       21.63131948366962       15.75878381446276
C           20.26614222312174       19.94514861897449       20.85210897799850
C           19.18554183423965       19.45093145660214       19.89073866295746
C           17.87498863674313       20.26045617630219       19.93320679767362
C           17.43790920983305       19.69094136121404       17.69676795060440
C           18.75524251441581       18.90702100030589       17.66688155040549
C           21.03277604627030       22.28460332024256       24.52673870861483
C           20.64029898663031       21.19223668261888       25.52090837700782
C           19.12204768262363       21.01275179179722       25.51329176597113
C           15.13687991477424       17.17948152703783       21.13867390982432
C           14.23333196784835       16.65507854389335       20.18703175541335
C           14.20754929018872       17.15195866562998       18.89034139873386
C           15.09307222794660       18.14657129327276       18.55474809488928
C           16.05457720515051       18.65036247517078       19.46068811896048
C           16.06075284805349       18.15820919087886       20.76058830133562
F           21.49045679331887       18.90768999877014       15.80727090595487
H           10.75747106094284       16.74164130721818       24.69429052527108
H            9.40436578670223       16.97858875609415       23.58559709388781
H            9.54191118932095       15.46809824180468       24.51150254692870
H           11.43259137428651       16.39820947087482       22.29935321090995
H            8.33995849714969       15.86986768049949       21.84454584594434
H            9.64211426023983       16.41702924371069       20.74951705284482
H            8.82505577455027       14.85425092513447       20.46747939264961
H           11.81228441160243       12.25680586796225       25.63042995315756
H           14.22026406883529       12.00199805855378       24.97940524499476
H           15.14063709026760       13.57736349995500       23.27821511596158
H           11.92583535173740       14.30647715211602       20.76573890179915
H           12.10609104922445       15.27852591640462       19.29504335842854
H           12.86505282220582       12.94532385195468       18.90811603187951
H           14.23486751285078       14.05685563531939       18.77172587622005
H           14.02569248391327       13.08458503379556       20.23186013945750
H           15.59602229114902       15.71900909774720       24.20492412555216
H           16.65228781616620       16.91842772485777       23.45074098303871
H           15.46286538160355       16.62388274121698       26.39464993612360
H           16.76417739550741       17.70878804156030       25.89770578711628
H           15.30894657127136       18.36076549118869       26.65667842200007
H           13.27107433896747       16.58311478323578       25.03319809980279
H           13.13382973204397       18.28581323111526       25.48155074661422
H           13.02949566187990       17.80745144999466       23.78551402521379
H           14.84577801203479       19.91794417284704       24.65710698193687
H           14.95844533433433       19.24290369565457       23.01938939127561
H           19.09552504773086       19.74305755469500       23.76134665406668
H           18.59435337976065       22.59219236653481       23.32244007233655
H           19.54905627919558       21.99811208937475       20.83359182162038
H           22.24880262382688       21.66477852442145       19.71277019319200
H           22.74411527323372       22.86965008812534       17.97531051777237
H           20.45863177759685       24.17970278557727       16.43466210708022
H           22.27485095923718       25.39768980422451       15.27106519977812
H           23.49115165773026       24.53297113225883       16.21286658976032
H           22.51614088819864       23.66685907449738       15.03171582530396
H           20.70271376471139       25.18339185204869       18.63076678982404
H           22.45663922814209       25.27751959864989       18.45426515753521
H           21.41021485730475       26.26996598242400       17.43639780210238
H           24.70038634524685       19.05089171912885       16.52484402954380
H           23.40719691030065       18.20264299624698       17.37381108751908
H           22.94177956394592       16.80703530161366       15.39473647752605
H           24.67975798244740       16.69304707778243       15.78227484661302
H           29.62617159815528       19.69191082494153       10.94627083211979
H           28.48299035806122       21.04446566416863       11.04593351930114
H           28.17672960748833       19.53550737678441       11.94322322813915
H           27.90505752145902       19.41576966064861        7.79786292038702
H           28.23388977403929       20.99282896749798        8.56206542480404
H           29.44940757590513       19.70506487412811        8.59469521550745
H           24.79534008585974       18.16212194997008        9.18871457724920
H           25.77589378927684       18.97077779107854        7.96728074189196
H           26.39983509088022       17.53427125640193        8.80188635186863
H           26.09344508029181       21.31526235799353       10.83541583106672
H           25.96776085438499       21.22142531111998        9.07055952250759
H           24.66785749702415       20.59187028214407       10.08586058915593
H           23.57023647430992       19.00631127612688       12.54011763249508
H           22.29277230349142       18.21040693365638       13.49569757598528
H           22.34911140808041       20.62685619929811       14.00375570360393
H           24.05637786295597       20.51533069382630       14.47205606079311
H           20.41867324121542       20.63924292748286       15.35372368887010
H           19.67410355208666       21.87980925816891       16.35036938601168
H           20.64569875642750       22.34811621841427       14.94510109718727
H           21.20488317526594       19.45179923897976       20.59053645590278
H           19.98175786913211       19.63873529522992       21.85550755512308
H           18.95067462629087       18.40303499628041       20.15460886532874
H           18.07770894334841       21.26830073079490       19.55800847932204
H           17.49351630751115       20.33641780692814       20.94970794671556
H           16.74676117406385       19.25960802121619       16.97928130984376
H           17.63280293657238       20.73236731619401       17.42411001581780
H           19.21782809826033       18.93777442309588       16.68234765531401
H           18.55679049469913       17.85869283452261       17.94222563996432
H           22.11424392984919       22.36495775137023       24.41853039474945
H           20.62718258791541       23.25015508864234       24.84630082899277
H           20.98520644484396       21.46665001274122       26.51629799238538
H           21.12074360917646       20.25532040404580       25.23393517047948
H           18.63207192669922       21.92964989572075       25.84877202724006
H           18.82578877555724       20.19890042951574       26.17386533562760
H           13.50539142410487       16.78444154944886       18.15766016402018
H           15.03296185321466       18.56138951170840       17.56192195302329
H           16.77369875220741       18.50835281023874       21.48997747028094
*
