! SP DFT wB97X-D3BJ def2-TZVP RIJCOSX LooseSCF
! D3BJ
! CPCM(water)
%maxcore 4000
%pal
  NProcs 8
  End
* xyz 0 1
C           10.28434022186883       16.36143773477334       24.14179715848616
N           11.44864161667476       13.79129612828383       24.24518510771720
O           10.17899364234737       15.19773830378080       21.97948699317205
C           11.04738075709732       15.77939646655251       22.95138588569651
N           13.44956462547777       15.71523291427511       20.75162397624434
O           16.82600575573351       19.26465954608907       24.03269381584586
C            9.42468063957741       16.12387364146446       21.22748756730846
N           18.96753085065842       21.79110621045715       23.10603492890052
O           26.05518198844275       16.70057214400557       14.08694341234959
C           11.97493807925963       14.66484383327810       23.39974200960442
N           20.31575608306490       22.15620734363574       23.18603125503157
O           23.35933504998570       20.66517557787378       17.68189378361702
C           12.18470324203488       12.78580268951388       24.68338380156498
N           21.21685996755581       21.94594168636896       19.69604422898023
O           19.54621602601314       22.86365610401920       18.48370765298301
C           13.50209715381337       12.58883385973986       24.30079385642305
N           21.66186338743983       21.64275089023416       16.58281640671427
O           19.64116936445309       19.55609007041788       18.59544605880079
C           14.06066201183500       13.49446358323770       23.41755761273484
N           24.03263787494578       17.73010173325292       14.02828707405268
O           22.30884392565526       22.32171722310565       22.14730248783457
C           13.29896812901649       14.56243206249615       22.94415141426763
N           27.90288687958804       19.39792969279798       10.04703236449777
O           16.31803683626383       21.44810444026118       24.05143185675503
C           13.91196747938763       15.53642811382789       22.03549151865480
N           16.81868512516318       19.76786935836757       19.05337671423194
C           12.61766805836311       14.78630687384541       20.02722785393844
C           13.43303601611814       13.59335849264631       19.53023565483186
C           14.95722329061539       16.39857781078790       22.29401186644476
C           15.77426163973185       16.47050602539420       23.54606100562117
C           15.29440990503889       17.46870415174941       24.62285877514964
C           16.14276051555315       17.27274072950408       25.88281894706832
C           13.82229145098486       17.23917942910061       24.95908759326831
C           15.43720629333729       18.91094509640434       24.12440925053368
C           17.12824619459325       20.54445808096778       24.04407178493816
C           18.62785000220921       20.77435892516421       24.09813796193982
C           21.11619283244918       22.04528307796045       22.11391891274885
C           20.41617490267084       21.57833037229701       20.83692122450447
C           20.72444913533179       22.54897043227429       18.61163088550067
C           21.76377602020775       22.77504586378597       17.50762274230982
C           21.61433618486987       24.13997882564536       16.82214566531869
C           22.67800036226870       24.30980836254632       15.73960428413429
C           21.76122746436948       25.23726246593374       17.87563309515310
C           22.51838504201999       20.63428524611080       16.78036161352360
C           22.56045573013059       19.45226388502092       15.79106459574639
C           23.49928679587866       18.36732596101738       16.32123641566486
C           23.62147911921994       17.22164747041592       15.31689159550050
C           25.25694514830153       17.46344229138579       13.53895945105523
C           25.58265117844766       18.11018295025226       12.29423546816978
C           26.04534760573201       18.59104474820074       11.29137834674028
C           26.44124599575917       19.24038182564077       10.04643763198399
C           28.43863879155379       19.94977693498341       11.27425305270261
C           28.44085274397533       20.08947880818469        8.89368376652813
C           26.02109968897391       18.29120928809279        8.91029694304699
C           25.65276310046247       20.56380307973988        9.93896380594805
C           23.12830716178017       18.70396994571280       13.46716354026789
C           23.00982390921434       19.91317047405710       14.40135906191940
C           20.51235076106219       21.66031103558870       15.70142801879027
C           20.18025381986933       20.06010064704122       20.88867336765421
C           19.11587728778469       19.54766012855683       19.91812019124803
C           17.79593387040387       20.33967957746917       19.95669698580991
C           17.37838607985086       19.78028362167395       17.71300155637907
C           18.70223981549545       19.00813674741163       17.68965842938280
C           20.79371503412293       22.61683913586238       24.47995529537127
C           20.50815210925976       21.55347233208500       25.53941812876730
C           19.02048200504757       21.20449552735095       25.52356255894743
C           15.15817206466278       17.15566116897288       21.09897412396466
C           14.21123009726711       16.68672836545715       20.16044144549840
C           14.14590885034786       17.23361506859895       18.88546006725745
C           15.02547124296355       18.23612282605679       18.56098336513945
C           16.01107762563650       18.70279053715706       19.45966261331073
C           16.06654496851482       18.15426163896592       20.73453838680352
F           21.28856066353215       18.86995954639155       15.67252427663456
H           10.98914484921125       16.69408097864990       24.89722739893804
H            9.67819963901254       17.20763206672208       23.83030425206026
H            9.64777995291100       15.59054604893457       24.56433134005633
H           11.63683967196337       16.57270023143227       22.46288170100910
H            8.65874197766067       16.61203378060588       21.83515369964760
H           10.07514362985586       16.88557034684790       20.78263027820635
H            8.94626531834357       15.54474068324145       20.44119084610254
H           11.68952625834402       12.11533127845952       25.37222872450761
H           14.06908374486189       11.75373998154544       24.67892977897361
H           15.07914125777109       13.37752097185390       23.07653245121715
H           11.80727607559264       14.44288108050763       20.67389054163605
H           12.18199147375170       15.31912185865797       19.17906497622269
H           12.80541961419866       12.93548844112840       18.93714902761394
H           14.26407719701325       13.93533981947556       18.91837782265371
H           13.82821505833335       13.03153836567702       20.37310050402576
H           15.79326593706321       15.48239890891239       24.00905082433473
H           16.79750121284195       16.73728914424973       23.27369215867111
H           15.97384357501597       16.28089870746512       26.29363908514760
H           17.19940309042240       17.37737173251909       25.65153664429470
H           15.87741315946344       18.00790075130847       26.63882266575248
H           13.65991096252045       16.20378036114346       25.24675452389976
H           13.51679365484120       17.87959970672607       25.78296575876697
H           13.19951715685409       17.46093486785037       24.09729205591670
H           14.95507199012633       19.61229969691053       24.81335273054583
H           14.97925219325596       19.02988557234180       23.13788569410013
H           19.14139018025120       19.84252819795839       23.84168047697582
H           18.36991049721786       22.60548512478839       23.25988055314655
H           19.46679103238226       22.11048701560528       20.75683822470625
H           22.19248832453214       21.68221238384396       19.72535489358528
H           22.76349167779363       22.71778858945845       17.94921748012653
H           20.61469080281587       24.21837038082091       16.38873291561974
H           22.56688818595112       25.27758446318967       15.25908825080788
H           23.66973803488330       24.25654262045834       16.18324474448449
H           22.60684767181902       23.53645638593274       14.98047532147496
H           20.97079384718954       25.16309868001801       18.61863672113329
H           22.72026682633582       25.15625087007576       18.38272793909024
H           21.69953647445605       26.21447028754619       17.40491856698887
H           24.47376100095534       18.81859714005888       16.50741643894194
H           23.11228027356474       17.99585436839969       17.27030641027372
H           22.65478034013080       16.72043553937472       15.20791139496948
H           24.36893220515983       16.50112811325735       15.65227783771483
H           29.52600557694774       19.93064300661851       11.21301243115134
H           28.12545446673291       20.98966907131619       11.46153089207731
H           28.13048253637593       19.33403977918535       12.11824290796668
H           28.06511731902633       19.64110058180995        7.97992834316982
H           28.21944284190363       21.16609588529313        8.88877455855764
H           29.52342899565233       19.96949428198517        8.90887864360428
H           24.99267997959910       17.97286661847142        9.06213935854892
H           26.08876849934187       18.78675148729531        7.94657257990378
H           26.66398672598369       17.41552778990216        8.91176067913812
H           25.88450665624783       21.21696660829499       10.77654032370166
H           25.90082145991294       21.07129846387296        9.01085311831070
H           24.58705906897244       20.35419202522306        9.94615349664119
H           23.49457778718069       19.01559622773440       12.48916770400292
H           22.14451646931473       18.23702963207446       13.35528084581336
H           22.29802359461817       20.62347836872879       13.98522184835094
H           23.97903477425121       20.40204569561054       14.50643410702439
H           20.31946557570192       20.68614722917321       15.27534971551048
H           19.64172692449962       21.95647600966929       16.28537462476430
H           20.66146635947322       22.38301532482462       14.90138673493142
H           21.12221324994819       19.55853937149876       20.65675188849682
H           19.87303429008027       19.78085820220562       21.89212020846234
H           18.89524322208839       18.49646842765804       20.18143329075944
H           17.98622746360918       21.35346897779955       19.59129122138289
H           17.40514833946085       20.40052753703880       20.97113992372893
H           16.69582026278976       19.34133862505248       16.99115720631978
H           17.56459101561845       20.82447815273980       17.44280673421853
H           19.16777867863628       19.04765112788181       16.70729435072566
H           18.51028140901549       17.95640005530660       17.95766981089338
H           21.86012426358786       22.81544296313922       24.38024583812270
H           20.27185943523314       23.54648866057206       24.73008956498947
H           20.79613576085534       21.93110911311031       26.51902326385353
H           21.09814233230122       20.66152211334531       25.32398696423245
H           18.42404068410538       22.07672624468264       25.80226886627133
H           18.80443507967427       20.39905016992791       26.22474850580998
H           13.41784766599918       16.89904570824593       18.16238723341448
H           14.94067204370335       18.69208178249944       17.58821949495691
H           16.79987587547216       18.47900995463565       21.45526552012442
*
