! SP DFT wB97X-D3BJ def2-TZVP RIJCOSX LooseSCF
! D3BJ
! CPCM(water)
%maxcore 4000
%pal
  NProcs 8
  End
* xyz 0 1
C           11.18053804443723       14.04524458133767       20.98113143870500
N           12.86078136975819       12.04280370439412       21.97793488489084
O           12.44479436681529       13.01646361158126       19.14432717412676
C           12.54440768227133       13.78709300531472       20.34002714430081
N           15.69765001300513       14.23523541193531       19.28186903056746
O           16.39268777983215       18.98254192763601       22.42828453263923
C           12.00854850890674       13.74278682262911       18.01646051180752
N           18.36810868934747       21.86283308892018       21.77621120997008
O           18.44279728000544       19.72036461032401       14.19305301913295
C           13.44131670061737       13.00996442369668       21.28445980775647
N           19.53631375012290       22.44643702172982       22.27811026932411
O           23.15877812910269       21.78590736320588       16.30825094404582
C           13.58157386091243       11.33096119120767       22.82586443699808
N           21.70302565512143       22.67568160595281       19.35112434654791
O           20.75975330437760       24.43349792065230       18.30297607614654
C           14.93011217459764       11.55371867199702       23.04747074557844
N           22.81088590957005       24.00094862748930       16.37235032524656
O           19.37459385487281       21.47855024824132       17.59887823058973
C           15.54836929552028       12.55720979208197       22.32129255750433
N           20.56693623005370       20.52986339639621       14.09403153996138
O           21.67904353730024       23.04838683860671       21.97755167287111
C           14.80807278846320       13.30299458888600       21.40677222450544
N           20.29934109202993       14.79389869209851       14.06699336551595
O           15.76451142425814       20.96640550762140       21.59693016833695
C           15.47925675446787       14.35800568504917       20.63700693634041
N           18.26561850423817       19.05390585265643       18.42534182674088
C           15.51464334148756       13.02870735525316       18.51511118160499
C           16.76274849482649       12.14921766364762       18.57093443411008
C           16.00281210071537       15.54270403436710       21.10209928059583
C           16.01660804651253       16.04855625676533       22.50948170203640
C           14.93125805803763       17.08740341125191       22.87527394302728
C           15.02213815739674       17.37240061545729       24.37668786862212
C           13.54230987094205       16.55368606114013       22.53173247949287
C           15.12497217333674       18.39807027579316       22.10185362742317
C           16.58743130166263       20.24968580406131       22.12265314171774
C           17.95782278859924       20.71667790153889       22.58060445621204
C           20.63534873471292       22.59199495226627       21.52224668442846
C           20.50964358846299       22.23893577794784       20.03945343560966
C           21.72988316928150       23.72000970734169       18.51834056865327
C           23.07670744083823       23.93343248875311       17.81354527592179
C           23.82755049333963       25.13792681584371       18.39986926299520
C           25.18332638793011       25.30493744186767       17.71695718883998
C           24.02818770033952       24.92008607649205       19.90073249237809
C           22.82005883192657       22.82276514504797       15.73437887584423
C           22.43655644244881       22.74811749283363       14.24033159095035
C           20.94426342773387       22.96512469208418       13.98314319202085
C           20.14003299839506       21.82376594756666       14.58876619745199
C           19.65186881770943       19.54418694333237       14.01468280372677
C           20.15919617335888       18.23809944888896       13.68492705380413
C           20.41693239191934       17.08431337450085       13.45176523816201
C           20.84602021080446       15.73754448802056       13.08291249231480
C           20.60644368140201       15.12206759955006       15.44370149593557
C           20.59040212219358       13.40007217489665       13.80187351302931
C           20.23116377425150       15.46822331510744       11.69777819456188
C           22.38550148067137       15.74015854930922       12.97964731209151
C           21.98741042202303       20.24729124364800       14.15198006336803
C           22.83112871722103       21.40460692245248       13.62284084082290
C           22.30769524765347       25.25558743249963       15.85099890688129
C           20.28100800751702       20.75218777104888       19.75956196725272
C           20.18049953790423       20.50358546565851       18.24290082880628
C           19.63801721551502       19.09349495621730       17.96805456662236
C           17.46088006296743       19.98689960988733       17.65359161997305
C           17.99844189767085       21.38844742544478       17.92351542726079
C           19.51708577770151       22.84791132421152       23.67610902549364
C           19.19730306661456       21.63682328888334       24.54694613714246
C           17.87072982387183       21.03533454359739       24.08765617398110
C           16.58729801427234       16.18580917062256       19.97181156615873
C           16.38426322195984       15.33672435918076       18.85533603518303
C           16.84291108625830       15.69004037392425       17.58935870310288
C           17.47652646260896       16.90470794216630       17.44017940426192
C           17.67915032764603       17.75416323587958       18.53774287354180
C           17.26519501747355       17.38966281154384       19.80103840939184
F           23.16548885062374       23.73131178314462       13.54055898090290
H           11.31768380172577       14.54871519146108       21.93113149234099
H           10.56575276892973       14.66795645201314       20.33748558877211
H           10.68477507102518       13.09417858160754       21.14966307422042
H           13.03183444731456       14.74407071181766       20.09382890474703
H           12.10633968085030       13.06709524108290       17.16985507482338
H           10.96415999113129       14.05615957658628       18.11062760995110
H           12.63656770779951       14.62848184098441       17.85734295007200
H           13.04352447929045       10.55277626536097       23.35003050361750
H           15.47975535583948       10.95910530476610       23.75866125985517
H           16.60208023943889       12.76041052410291       22.44762541673520
H           14.65330594463107       12.48575394265847       18.91223576619007
H           15.29593890749960       13.30870032876653       17.48244666241822
H           16.63121584744897       11.27798505626716       17.93710372869799
H           17.63140177939561       12.70816355807665       18.23079223189217
H           16.94146465805232       11.81576021080308       19.59057423678831
H           15.89470965656230       15.20071872268961       23.18555485962018
H           16.99175700606651       16.50272893507998       22.69853663170611
H           14.79657664390022       16.47428708624504       24.94446217534379
H           16.02294394205457       17.70614788544600       24.63794041264019
H           14.31305859907139       18.14641685043080       24.66039026061074
H           12.77064375855977       17.23133100147698       22.88990715513337
H           13.43323736129836       16.45031905003417       21.45586102672985
H           13.39215912384776       15.57950596313928       22.98973696182614
H           14.33820182044229       19.11658447727767       22.35328755602391
H           15.09424279351499       18.22008428148694       21.02297772959922
H           18.68190908941263       19.91095315337169       22.42498045041260
H           17.60676205116887       22.54522998859501       21.75657790938446
H           19.68644301979220       22.83077315045675       19.62488137287837
H           22.54832121321651       22.16129427664893       19.54227041167201
H           23.69553813532553       23.04065923668917       17.95607774301469
H           23.21993976312592       26.03730288320481       18.27108676744325
H           25.70459363256188       26.16099582861659       18.13379690560440
H           25.79196587402653       24.41886189899256       17.88234468644086
H           25.08064672704034       25.44841293739185       16.64540019291145
H           24.61405781935015       24.02321514318907       20.08698401916416
H           24.55733326453069       25.76709748170772       20.32521901278919
H           23.07795490574043       24.81646731039777       20.42057563715801
H           20.59133227229325       23.89662544642534       14.41944614816786
H           20.79624821289332       23.00730830903105       12.90150659040303
H           19.07957803723844       21.92979792586595       14.34334584843973
H           20.23143127936336       21.84829590412809       15.68107412855870
H           20.42002003747570       16.17882533547149       15.62474082194280
H           19.94569996707860       14.54444707933292       16.08923860104816
H           21.64545799054399       14.89345416015476       15.72499757848439
H           20.28169755498828       13.13644047362406       12.79476666276632
H           21.65230270643568       13.14549617587533       13.93459242545529
H           20.01068585975761       12.80128818807606       14.50345309733581
H           20.68988551703362       14.60346384215814       11.22941955879871
H           19.16196937678563       15.30395271434761       11.80066633667609
H           20.39150816278357       16.33118475098853       11.05650470769014
H           22.83456008640068       15.94039010885554       13.94907358640645
H           22.73753511755041       14.77971748290050       12.61315072303729
H           22.70187198435305       16.51425308618242       12.28616581635518
H           22.27810713625085       20.05115685858147       15.19040944741209
H           22.18628972657732       19.35387556349153       13.55776982029544
H           22.71374850694723       21.50652975081755       12.54332932313568
H           23.87956190678074       21.19761927207676       13.84153301940937
H           22.28869208632362       25.25244351476973       14.76877676867516
H           21.30809889397505       25.43985532182387       16.25192831623093
H           22.96382767132586       26.06224211482285       16.16997312172216
H           21.11048776046476       20.16695066371506       20.15462015569672
H           19.35267100092846       20.42689413334446       20.22132965244409
H           21.16555937382226       20.62296793978272       17.77395205980134
H           20.22095953113172       18.35636192108321       18.52494078812800
H           19.72735173305539       18.87536856449744       16.88582937065909
H           17.50306402795697       19.77925804184262       16.56920753777721
H           16.42415015618417       19.92257205286008       17.98813436716062
H           17.83470230406657       21.63775782892861       18.97811817179251
H           17.50226274963295       22.12783420548861       17.29195678461204
H           20.49492620829952       23.26949716475820       23.90412908601337
H           18.74947208528517       23.61812465290057       23.80305539621493
H           19.13503426474418       21.93967561573201       25.59057722662049
H           19.99506640956236       20.89967840730122       24.44315011182139
H           17.06030186441691       21.74949967184446       24.25852439532891
H           17.64760789315374       20.11961896280904       24.63435293974715
H           16.69950598394055       15.04616786094973       16.73577865004478
H           17.81954430920963       17.21600445050085       16.46298267077087
H           17.46788171314093       18.04735749029516       20.62900787380515
*
