! SP DFT wB97X-D3BJ def2-TZVP RIJCOSX LooseSCF
! D3BJ
! CPCM(water)
%maxcore 4000
%pal
  NProcs 8
  End
* xyz 0 1
C           10.93151227931859       13.92183364583755       20.95454750850030
N           12.62125860692456       12.19811937484279       22.34693018092558
O           12.45293036029130       12.84922615904639       19.35292783406343
C           12.36965882807960       13.71898818623040       20.48192496463532
N           15.64765737253132       14.12690943418250       19.60309202064287
O           16.10146034891822       19.15648601542745       22.32745746577247
C           12.09655635035695       13.45035467341389       18.12696259960920
N           18.44609754532839       21.76273915508399       21.73581832734538
O           18.52900204526054       19.58131362739544       14.08959132079434
C           13.21799875743355       13.09099009949251       21.57103659924906
N           19.66857559512811       22.19056334503640       22.26268997559288
O           23.19549449451848       21.87237002892994       16.23925201507281
C           13.31037876454710       11.61431135114903       23.31103171599810
N           21.69495913384739       22.49794408312821       19.25704217990392
O           20.67860729923684       24.35563899171780       18.48063737826308
C           14.64114834896403       11.90036199521782       23.57344023884044
N           22.64453178351824       24.04171969940651       16.38100041109151
O           19.42539413987950       21.22673930970194       17.54429973462138
C           15.27207091326605       12.83172605658731       22.76915478143318
N           20.60758420245301       20.50868911075008       14.05292120310779
O           21.83148042561510       22.69901944315426       21.91565197450882
C           14.56480424811328       13.44061803279020       21.73324790689393
N           22.49451723960012       15.55010941101861       13.29084793511432
O           15.80480919536241       21.16183373722762       21.36915783296088
C           15.25885958524053       14.42352885881142       20.89015211856278
N           18.30583627155602       18.83056641539837       18.44350585503037
C           15.57360590429755       12.82711070809850       18.98349203982445
C           16.80441062363526       11.98513055555464       19.31635839274582
C           15.68271178509851       15.68408022074562       21.24429758634834
C           15.50466366970257       16.34178070214953       22.57650080107375
C           14.42069471592283       17.44110708497581       22.67603643419431
C           14.25672319811590       17.82614688070149       24.14900425609068
C           13.08877520177496       16.93976780189083       22.12221266620404
C           14.81950565692660       18.69069551753616       21.88193637559312
C           16.48289326492234       20.37056707258947       21.98657030656645
C           17.87886577650049       20.66579768536266       22.50999499551876
C           20.75071475839149       22.31653810745443       21.48005188636878
C           20.55252897767606       22.00896389315368       19.99402425443362
C           21.66764519444311       23.63508224138369       18.55693892102863
C           22.96766264235599       23.95571410628349       17.80814183935857
C           23.65147493768338       25.19047792640222       18.41164510378010
C           24.91896316680446       25.54394704846907       17.63631739962964
C           24.00904586359071       24.88277105802644       19.86733429693345
C           22.74710818694414       22.88968950060738       15.70412487814035
C           22.34778604014035       22.82162550651017       14.21415468752127
C           20.84923011866760       22.96211875889871       13.94540822190719
C           20.09969809950691       21.77748031814245       14.53648725813068
C           19.75385910935382       19.47138837884747       13.96946257005617
C           20.34213608183325       18.17754303678357       13.74258131322522
C           20.66207678575671       17.02095059194964       13.63773676462159
C           21.04575857300016       15.61710059560199       13.51610609396918
C           22.93908663423485       16.25581326621602       12.10544468453377
C           23.06527436226242       14.21895797999040       13.32818142057528
C           20.68139913187836       14.96401293833774       14.86084338293337
C           20.18959644293031       14.99874370920111       12.39029355991003
C           22.04092021295603       20.30985990670537       14.12369508255822
C           22.81334352679626       21.50946978932354       13.57858875764711
C           21.99748034279941       25.25009518693757       15.91524948333486
C           20.34327225484536       20.51840565452260       19.71317244348731
C           20.22474927583649       20.25305495646666       18.20059696548009
C           19.66469862626099       18.84491223801470       17.94684415853519
C           17.49091836328422       19.75213244519460       17.67007831577592
C           18.04874860114087       21.15633918625872       17.87825248468581
C           19.69356828564036       22.55114089491238       23.67227613491761
C           19.18795611065891       21.37933640130058       24.50949587783471
C           17.80040936378260       20.97223228476647       24.01837624135491
C           16.39464743277902       16.19082132185868       20.11672795624435
C           16.35757983032728       15.18745052913297       19.11493834350329
C           16.98433634900074       15.36954579164757       17.88596671655221
C           17.63605684464452       16.56204986210468       17.65313217377571
C           17.68888086843472       17.55805986122605       18.63736172133821
C           17.09081670205048       17.36922323524813       19.86553765747481
F           23.02079804946019       23.86083208474496       13.53626677961967
H           10.48961491866148       12.95493258528127       21.17324491600816
H           10.92841142454693       14.52589502303373       21.85621956298201
H           10.34492435811651       14.42730953451710       20.19270513121446
H           12.81598246674075       14.68705621592503       20.20462192451052
H           12.71520456588388       14.33662915420258       17.93354055451566
H           12.27936516593892       12.69913066839540       17.36243645427991
H           11.04102638438683       13.73980834773688       18.10677654735574
H           12.76198043820526       10.89086676428989       23.89879393747394
H           15.16440175189136       11.40887334765812       24.37738527801308
H           16.30895922342747       13.09158327444930       22.92596615613150
H           14.66672753077375       12.32446269141878       19.32616102044053
H           15.49858471723142       12.97086273306462       17.90342767176091
H           16.77466821406748       11.05138927420028       18.76246403371321
H           17.71131338353308       12.52469852803134       19.05149902072915
H           16.83165752408495       11.75876948080946       20.37990078334629
H           15.24685686830196       15.56829289328977       23.30272593330720
H           16.45658121762269       16.78658655767967       22.87227306330212
H           13.50600284058740       18.60579792695564       24.25516931543988
H           13.94252861953987       16.96579060966713       24.73317668913588
H           15.19742218394362       18.19447593792745       24.54923760479835
H           12.31109852085591       17.68658620450287       22.25999535780361
H           13.17592453787451       16.72851335803408       21.05994439730673
H           12.79249309188673       16.02834470082310       22.63446817785530
H           14.08778570099484       19.49323212357536       22.01874763381126
H           14.88845668247230       18.46809691772548       20.81296244067433
H           18.50691331403241       19.78097296355776       22.35866623539899
H           17.77481633402782       22.53202410926522       21.69909704380284
H           19.69244422795997       22.58692172993774       19.64067135083686
H           22.55346582038301       21.97511752415511       19.34207830761449
H           23.65275662722856       23.10757348839835       17.90223692753128
H           22.94912239210398       26.02867671171103       18.40354408735136
H           25.60414841061461       24.69918367211639       17.64386074739016
H           24.70723446297433       25.79624885913135       16.60114276529398
H           25.41225239316575       26.39164053342751       18.10482547862613
H           23.13976328995009       24.55559541685783       20.43309593744205
H           24.76093152244252       24.09904730371007       19.91565769562999
H           24.41031434169308       25.77211998470657       20.34437638669588
H           20.44202041110262       23.87311504315844       14.37659825438015
H           20.71296504923014       23.00017710295965       12.86246247087352
H           19.04196277694358       21.82436285493620       14.26623678467097
H           20.16899338313694       21.80481697183503       15.63085356685163
H           22.75753244642228       15.69489909578513       11.17623964679471
H           22.43413973511772       17.21745802738138       12.03866510202671
H           24.01141653708466       16.43067146444567       12.19279112754398
H           22.81696745143807       13.72835161207185       14.26335419775352
H           22.74239276435247       13.58474804904433       12.48902890656112
H           24.14769268740258       14.32151370964347       13.27473502080147
H           21.40303259806616       15.25490931700326       15.61897135180759
H           19.69586924974200       15.30333710710764       15.17173063628656
H           20.65762497255697       13.88226817005328       14.77072853942453
H           20.42450493795668       13.94318798780510       12.27851646339698
H           19.13612723226107       15.10025132935754       12.63850869212687
H           20.36900917545535       15.50851620104649       11.44666130414752
H           22.33829431627518       20.14722893947466       15.16553629144377
H           22.29930642207462       19.42054696643554       13.54655657910270
H           22.67122340391688       21.60055649511903       12.50055122031650
H           23.87371328552850       21.36021771991883       13.78170350172794
H           22.01995128386054       25.31368049757972       14.83391266365200
H           20.96913341458945       25.28273956884616       16.28289526040651
H           22.52627266133723       26.11174012391953       16.31286877782156
H           21.18449574033278       19.94591987945033       20.10315281889120
H           19.42577512737856       20.18649358270112       20.19299659830845
H           21.20589899680169       20.35674845732238       17.72213453116139
H           20.25354563595205       18.10417071216299       18.48865515246051
H           19.72444541925369       18.62854240874027       16.86408807528916
H           17.50085117409983       19.50422308908336       16.59291492362462
H           16.46260567862413       19.71338385474049       18.03311400205775
H           17.88955579030449       21.45501507304277       18.92135548220539
H           17.55684263235530       21.87167473988434       17.21748121491966
H           20.72213350766878       22.81323421082804       23.91920112602169
H           19.05239157716128       23.42728224373310       23.82065108186351
H           19.14908627843450       21.67178651157992       25.55752882904709
H           19.87616424189926       20.53934983712959       24.40735150945136
H           17.09062698668616       21.78636731604823       24.18510556965763
H           17.44592225446526       20.08860382556259       24.54697840830600
H           16.96051476860080       14.60500713811643       17.12425766895710
H           18.11246572848995       16.74059661365204       16.69909926310978
H           17.18827171718683       18.14056893796526       20.60829205133401
*
