! SP DFT wB97X-D3BJ def2-TZVP RIJCOSX LooseSCF
! D3BJ
! CPCM(water)
%maxcore 4000
%pal
  NProcs 8
  End
* xyz 0 1
C           10.52909359298768       14.07220129193578       20.93769501363186
N           12.01965432823680       12.31784382558393       22.55726157146402
O           12.01994862022831       12.65398131766834       19.59658934795952
C           11.96367966420320       13.69034647979546       20.57571897877765
N           15.22451237226660       14.13028837511941       19.97813941799304
O           15.58744122977199       19.21036563569069       22.59286954323376
C           11.68428900158615       13.05542587570228       18.28688167683921
N           17.88508760877617       21.86369930208811       22.06704715348125
O           19.77656180705308       18.37806266119988       13.70216388022078
C           12.69989609635327       13.15689599903085       21.79052915475470
N           19.06794570082016       22.32981009050111       22.65035707388570
O           23.27113093905401       21.55360329616228       16.86434270765271
C           12.59258690515369       11.80635474668624       23.63170929442296
N           21.34413088475609       22.39688701701909       19.81169857500076
O           20.51310301860696       24.31364497041383       18.96820178025989
C           13.88685277952414       12.11828323991465       24.02101440560654
N           22.52561938610602       23.67594513909438       16.94326608668442
O           19.31740252088117       21.06085221429306       17.91200998890352
C           14.60644790909579       12.99001702044642       23.22584723177214
N           21.52791363707916       19.69658457771622       14.29765490491858
O           21.26689119008831       22.75362634455550       22.45350409622572
C           14.02362351403883       13.52105137376974       22.07451063407472
N           23.50493943551715       16.75111111828052       10.07448264797828
O           15.25830103490380       21.19949969942549       21.60961029277204
C           14.80573436163571       14.44965076178859       21.25200117409704
N           18.00717283629516       18.76857419009395       18.84504915235544
C           15.15341090491285       12.81900182649863       19.38269574680580
C           16.37383209408766       11.97806572542070       19.75358592148395
C           15.25724223816639       15.70100197440067       21.60765587228114
C           15.03970524300395       16.39622372666160       22.91405497789947
C           13.92844106457225       17.47369342655943       22.93266546500485
C           13.69466539184499       17.90777408559304       24.38222982505373
C           12.63360125172769       16.91717529210493       22.34522684889810
C           14.34005391618070       18.69544277023264       22.10419766790153
C           15.93549910409025       20.43813251180993       22.26587877996231
C           17.28946295080206       20.79296642445200       22.85871878371950
C           20.21083617626371       22.38220441593191       21.95234200675438
C           20.12448759961912       21.99835259570087       20.47226624850506
C           21.43973590394542       23.51772133430013       19.09170865793673
C           22.78785653844290       23.69413808416828       18.38314313763438
C           23.53409875079574       24.94380259287513       18.87404892839736
C           24.94811706986987       24.97052995685323       18.29551814688234
C           23.57603280332352       24.93102227610682       20.40326667566513
C           22.77955744581325       22.53226122357572       16.29401830402232
C           22.41829353632571       22.40635479812424       14.80319653971585
C           20.93508335731324       22.03980416807774       14.65429764828914
C           20.70820795877404       20.59071635101749       15.07766238268431
C           20.98059725233644       18.65053027616298       13.65586706793919
C           21.89391003081305       17.84422159127956       12.88716796773613
C           22.53833008129046       17.09201122779068       12.20245320108493
C           23.40559757677299       16.20115054006833       11.43498597908449
C           22.22655642684430       16.89015639601690        9.40651971056987
C           24.45769607045293       16.08714232988796        9.20974963014915
C           24.77923670634694       16.22354676513100       12.12506484085867
C           22.80802753719803       14.78147917119692       11.50948084849193
C           22.94846730718315       19.93850978749268       14.41231552814573
C           23.28704262506904       21.38459006870647       14.06039499490372
C           21.90662500200216       24.86171056094295       16.38590187791808
C           19.88313663458619       20.50298955188218       20.25049302726224
C           19.98024639887203       20.13310609630423       18.75785019916475
C           19.42008553846948       18.72065898166829       18.53608520577010
C           17.32432881934535       19.64962773252218       17.91298382309060
C           17.90743091060843       21.05219308753152       18.06740025207460
C           18.99250458869578       22.76963898341056       24.03614877201099
C           18.44234157334909       21.64097790332282       24.90315428563655
C           17.09984287955830       21.18092310026561       24.33848349272443
C           16.00895469943467       16.18040602315782       20.49620522523870
C           15.97316029466307       15.16851714459135       19.50140241042392
C           16.62821559812726       15.33049728283627       18.28470476264784
C           17.30532033733114       16.50910241455896       18.05594880777046
C           17.35445376705284       17.51281540281704       19.03367237635693
C           16.72955521861474       17.34461546023302       20.25039889479403
F           22.64736682055780       23.62753896962460       14.13733014367580
H           10.53972519013768       14.82134893207855       21.72367876150117
H           10.01235308483543       14.47977746288988       20.07325700567127
H           10.00834584060583       13.18839258707601       21.29299174884378
H           12.49908101613160       14.57180231806772       20.18507128267961
H           12.31632432325932       13.88740759116469       17.95992888248204
H           11.86961769142290       12.18969762860920       17.65684360494431
H           10.63633672728679       13.34480655632851       18.20592016897552
H           11.97811246370692       11.12277995596976       24.20170601646761
H           14.31566029556081       11.68644032215089       24.91133365355148
H           15.62429463427792       13.25792237468121       23.47188883082483
H           14.24132848984341       12.32420318639774       19.72514212722393
H           15.09375667125830       12.93723077290336       18.29774067748329
H           16.32084690845430       11.01241818016822       19.25983366931105
H           17.28801372368608       12.48183036333534       19.44603603084413
H           16.40803452347942       11.81985544145201       20.82943010570107
H           14.77907773777317       15.64804615575570       23.66377405794067
H           15.97314504121503       16.87465737700814       23.21328543307442
H           14.61436261891717       18.29238331276205       24.81550261754063
H           12.93772965015646       18.68727800108916       24.42648870380096
H           13.35428855351294       17.06566246064702       24.97908549910289
H           11.83196145927104       17.64701868108826       22.42153547905248
H           12.76987976821301       16.66409572393474       21.29689189952635
H           12.34016145351902       16.01824500239645       22.88182296975650
H           13.58717750271314       19.48677204403603       22.16208571400597
H           14.47210370126990       18.42135748058610       21.05348007566711
H           17.94492052339662       19.91752439415356       22.79858898688195
H           17.20848747406292       22.62382985478405       21.96951666936247
H           19.32196065853665       22.58807475588294       20.01759554184634
H           22.15933599000302       21.82311274944314       19.97381158178916
H           23.41091772224583       22.81684053917433       18.58594137314731
H           22.99214560190326       25.83864470654170       18.55480420105782
H           25.46217818149506       25.87467295492134       18.60930439133258
H           25.51469488630916       24.11030541220354       18.64913603744996
H           24.92421155426538       24.94242016633763       17.20801975752592
H           24.06391255694761       24.03117253889226       20.77375662451835
H           24.12359950957987       25.79595101601591       20.76635442726172
H           22.56882050804250       24.96340166588731       20.81956695328665
H           20.30818447334343       22.67879974875262       15.27630675175615
H           20.65821420498549       22.17723556742508       13.60692444831742
H           19.66189376190544       20.31068986736102       14.93211479057129
H           20.95400291373049       20.48389743777632       16.13977121727095
H           21.50130121122452       17.33784458546880       10.08436739169893
H           22.35552594950234       17.55225191172606        8.55071920610003
H           21.82438660030788       15.93322632918222        9.03950100050655
H           24.52445584517972       16.66277998289086        8.28709813171480
H           25.44017206924998       16.07258711670916        9.67197247728574
H           24.16514435233842       15.05851781584041        8.94681954695222
H           25.28345122658236       17.16370686577308       11.91705939914631
H           24.64277947805699       16.13049127775650       13.20044782196852
H           25.39483175958688       15.39547618166830       11.78664217971226
H           22.78050044280501       14.45118241845509       12.54467491290476
H           21.79236392675481       14.77025681922795       11.12018412027115
H           23.41904879796222       14.08870573695737       10.93678677960417
H           23.25389799955594       19.74487479302352       15.44648936093451
H           23.48205119036344       19.26404562292252       13.74262611130490
H           23.12436325561334       21.55558720979975       12.99261524571269
H           24.33901785426745       21.57162167374338       14.28649472267002
H           21.23811464249656       24.61818996254182       15.56746162296864
H           21.31767358337941       25.33557074474844       17.16978082097687
H           22.66796304072745       25.55390874737651       16.02235446461417
H           20.62697149124253       19.92383337063569       20.79688160671781
H           18.88991306994890       20.24013403328140       20.60658434759076
H           21.02477380633274       20.17563959163802       18.42939982180934
H           19.90812535562973       18.01481164221859       19.20898352548325
H           19.61541414516289       18.41300368259727       17.49299443986024
H           17.44091625209804       19.30933300603890       16.86709725709584
H           16.26289836279334       19.67324756903670       18.16105380529499
H           17.62660601447224       21.45060130808242       19.04989848793093
H           17.52702695809987       21.71710391726543       17.29007664286823
H           19.99834225302705       23.06142109075545       24.33568372031287
H           18.33248826593897       23.64268403115690       24.08721205218184
H           18.32200405148076       21.99456274985402       25.92603976596726
H           19.14760743918615       20.80889221237947       24.90303532026047
H           16.36796773837220       21.98951775253598       24.40572724171066
H           16.72190491875239       20.32248829272356       24.89164958104887
H           16.60583479679489       14.55937907879432       17.52916012733026
H           17.80838107141456       16.66000830456267       17.11083945731354
H           16.81950982159477       18.12499430867641       20.98676303679742
*
