! SP DFT wB97X-D3BJ def2-TZVP RIJCOSX LooseSCF
! D3BJ
! CPCM(water)
%maxcore 4000
%pal
  NProcs 8
  End
* xyz 0 1
C           11.48147755709373       15.82258028232004       24.95689872825234
N           12.07725024121413       13.39057332045406       23.71159268707693
O           10.52654216681814       15.77364887240648       22.69768574771608
C           11.73730844795691       15.76355308160751       23.45143134659602
N           13.14746565387456       16.32314951429987       20.55457241811502
O           17.99819601423354       18.39554457708738       23.04782086593634
C            9.90322689171803       17.03623088863936       22.60886023145720
N           20.45046346496444       20.56745574206350       22.54808321861516
O           22.38984296528510       17.18767655724618       14.29723151422150
C           12.47717697799590       14.48939471324983       23.08904336170931
N           21.74196552547332       20.69113560403179       22.01913516010823
O           22.72060004407410       22.46571878791718       16.33108721088552
C           12.68892531521214       12.24543766737581       23.46735202119180
N           21.03501652679865       22.27007646957995       18.89231828812681
O           19.21751565040301       23.60358650995830       19.03139145116461
C           13.75586778507490       12.12871136235621       22.59028949474143
N           20.67565154566981       23.38817490123493       16.17523260482903
O           18.71314524240357       20.59440244749717       17.50060864689596
C           14.17839083302246       13.26844855126946       21.93152985858712
N           22.08678496055737       19.18976146789523       13.26889123648112
O           23.05226983154101       21.11270238757339       20.23676515040981
C           13.53263415930376       14.48257794882401       22.16275220181384
N           27.30308135372085       16.68924199149326       13.12961457172448
O           18.59813667593733       19.79483397783736       24.69858555965206
C           13.97414017007225       15.68785083442770       21.45369202056004
N           16.37340597190455       20.60098267853014       19.15078463709171
C           11.97317496222056       15.73964051538607       19.95476876688096
C           12.34956447775970       14.71569703152818       18.88289604026820
C           15.17519485247960       16.35654418946013       21.55713758381922
C           16.35025156056803       15.97272514999125       22.39939514285669
C           16.44534082394986       16.66089864138822       23.78078672687884
C           17.60228446038014       16.03195403104222       24.56322177334154
C           15.14752138508218       16.49548599485833       24.56729230475685
C           16.69962766470142       18.16645262341003       23.61575415220199
C           18.84242632258044       19.17513994901435       23.68698466386817
C           20.20493311523123       19.20005684944948       23.01048207862853
C           21.93445799014338       21.03311749228326       20.73784652467498
C           20.67234766951493       21.33005984354024       19.92482856783971
C           20.30567584419351       23.33134552006369       18.54040910096156
C           20.94744978185879       24.13850479518761       17.40379870710541
C           20.48633274335766       25.59946710574827       17.34871198437499
C           21.11793045691110       26.31400951554323       16.15537643675739
C           20.89314739411760       26.29410366662028       18.64812052414698
C           21.64229305096126       22.57680399344593       15.73837635866839
C           21.43015859466879       21.69353356339120       14.50134062423172
C           20.85147558755202       20.35615511348971       14.98269309497905
C           20.76303095118865       19.36021909713343       13.82604095734772
C           22.84354334223564       18.15418075103132       13.67794779375216
C           24.24349646670407       18.21685593407710       13.35721530568388
C           25.44351749366951       18.12916993806562       13.30332977840192
C           26.90027486741080       18.09799536918916       13.21400284795445
C           26.83833567531093       15.87044968458407       14.23074550043082
C           28.70976821678206       16.45738030016737       12.87996687080109
C           27.29821220566825       18.84959687678502       11.93390749429057
C           27.44684734601987       18.84758253948393       14.44965560219395
C           22.62895858384555       20.39931353177310       12.69663353223327
C           22.76003971815625       21.48349549640614       13.76970254650205
C           19.30933795415478       23.44453445215417       15.69886531306061
C           20.15823570086915       19.99822115522496       19.34732964112611
C           18.73054701459696       20.00794999734758       18.79909000438552
C           17.70904086887736       20.72373840390239       19.69919027586968
C           16.37160719999077       21.19275307543311       17.82635183140503
C           17.41500679854989       20.50443783685143       16.94020337725236
C           22.84024718930022       20.33413335916358       22.90327311224820
C           22.66133370555891       18.89395630734784       23.38327480298911
C           21.27685900218744       18.72559522261566       24.00634475110819
C           15.09198898623376       17.47130820587332       20.66707003736092
C           13.81704100473899       17.41070116085426       20.06133866674027
C           13.41254992014540       18.39371974585113       19.16761957444048
C           14.28126489523632       19.41947190974809       18.88499056363675
C           15.58286844878528       19.48506230674390       19.43203896390360
C           15.98160158685277       18.49178700797659       20.31836833564246
F           20.54704796907262       22.28069614633213       13.58666406393373
H           12.42522791705399       15.71900911026912       25.48664853928639
H           11.02298321787791       16.76823016523425       25.23184870614942
H           10.82628267281831       15.00290003203736       25.23669703238611
H           12.34550191861504       16.62847712804935       23.14002123556060
H           10.60319614692217       17.78925516257663       22.22470964311553
H            9.07798127079867       16.91335729855219       21.91062192219019
H            9.51450116648735       17.36764635549857       23.57625343936034
H           12.30202750996019       11.39263499748672       24.00724338017269
H           14.23268214506795       11.17627318826348       22.42460698569256
H           14.99652720460744       13.23025603551244       21.22672226320265
H           11.36884730247944       15.26424671885232       20.73198693816713
H           11.38716808781087       16.54658100271990       19.51003910175188
H           11.45161198254966       14.33111090423948       18.40869044523684
H           12.98024898118329       15.17728502088733       18.12506967869260
H           12.89159374425331       13.88385879705720       19.32962328402092
H           16.32531053202858       14.89441274501736       22.57293407402780
H           17.26225992981180       16.20864621163556       21.84581123269026
H           17.36603297048891       15.00139213433798       24.81869945689877
H           18.51587520830345       16.03964518074795       23.97118584568705
H           17.78289600614604       16.58331466639407       25.48467400002389
H           14.85243795727988       15.45092832557741       24.58943971176553
H           15.27723058333015       16.84294838402690       25.58961048272135
H           14.35241328468635       17.06686507326103       24.10481262618773
H           16.65230250802406       18.67478467139651       24.58279786053988
H           15.96564196771460       18.60510510051051       22.93713740162433
H           20.18016066567790       18.54357509899156       22.13545944104898
H           20.35286269034763       21.19846719237245       23.34735799807034
H           19.91830563389199       21.78910035696519       20.56551058257428
H           21.93078753058597       22.09661540288129       18.44801890461209
H           22.03482668862112       24.12239327983028       17.54001293682378
H           19.39671591132421       25.63337467116863       17.27106816755063
H           20.82573235308745       27.36020974315401       16.15522824977000
H           22.20316155033454       26.25939900272425       16.21868473629704
H           20.80986428318503       25.87080427735968       15.21109967409709
H           20.56920118138250       27.33076882553084       18.63280325855236
H           20.43501204272512       25.80378030788097       19.50259939686007
H           21.97330881294597       26.26943522206282       18.77113550486521
H           21.53251921250674       19.96351077274735       15.74163621673763
H           19.87926576195612       20.50100003333786       15.45241861382115
H           20.09160478248245       19.73114458455947       13.04800112442010
H           20.41532806142216       18.39121072322758       14.18688346638787
H           27.43514120775900       15.99721073549246       15.14575371370720
H           25.79825991778760       16.10160587709646       14.45540714046171
H           26.89713371582059       14.82590809966655       13.92840082206238
H           29.36025316150025       16.77013883120208       13.71084032802533
H           28.84499687238848       15.38776734474270       12.73094362943174
H           29.02133622888045       16.96676609992246       11.97304259199241
H           26.74485041788469       19.78051248706018       11.87291888532943
H           28.35952314140332       19.07829268860534       11.93350470743013
H           27.05827375618495       18.24328121475467       11.06640998440586
H           27.13371046066699       19.88607709440788       14.41857570109945
H           27.06818422451692       18.40495384151313       15.36771646194426
H           28.53176451977128       18.80840356854664       14.45618611938326
H           23.60365261060914       20.18706950574163       12.25784562265070
H           21.94444549671481       20.73888934221357       11.91395238827485
H           23.06481516511471       22.42548667667318       13.31419476672751
H           23.50694756733392       21.19880204210409       14.51077939350235
H           19.16834999432538       24.28358508701963       15.01628347950474
H           19.03214466578840       22.52938836298736       15.18975652992481
H           18.65617503916719       23.56589286509350       16.56157479433066
H           20.83204297373193       19.68757900695996       18.54568524366435
H           20.19759212657382       19.25018539998673       20.13730657131890
H           18.41248048771902       18.95507624756340       18.68715265422605
H           17.94349864285054       21.79280869331628       19.71175336460950
H           17.75281442640451       20.34286390819864       20.71725742705491
H           15.39605780217516       21.12248440351029       17.35514308783563
H           16.63816797819545       22.24943924490222       17.93598626773782
H           17.46458722177792       20.97781763614541       15.95912435306507
H           17.14484771174716       19.44251285675163       16.81825251375187
H           23.76516448846140       20.45902268762842       22.34033171681072
H           22.83576850854429       21.02098868498842       23.75522396468045
H           23.43268431630995       18.65963136915103       24.11462561479961
H           22.77106136316137       18.21557569185171       22.53598665083192
H           21.19259567023843       19.32422673992667       24.91710153147379
H           21.09791934692910       17.68197890725716       24.26664110892539
H           12.43245377993334       18.37939456022794       18.71921639068343
H           13.93512679498557       20.20528283608306       18.23377405358503
H           16.96719799516034       18.48984292165623       20.75505892902525
*
