! SP DFT wB97X-D3BJ def2-TZVP RIJCOSX LooseSCF
! D3BJ
! CPCM(water)
%maxcore 4000
%pal
  NProcs 8
  End
* xyz 0 1
C           11.50394808649795       15.75293413608205       24.92966281931448
N           12.18647790847517       13.32894274899690       23.69535225877642
O           10.57231206280738       15.67307384759572       22.66683861977877
C           11.78014146516409       15.69446482385669       23.42749834237764
N           13.20144800874822       16.31087400378117       20.54936626590980
O           17.99630210462337       18.42046152985823       23.09784967893827
C            9.98180595158581       16.94160861713971       22.48557193694289
N           20.44869613632732       20.61185435370856       22.54883849604524
O           22.25324382191456       17.14718805442846       14.23821709271171
C           12.55779637439400       14.43989392796147       23.07416589023921
N           21.74296460040268       20.71673471383932       22.02120613241449
O           22.66664528477254       22.41110878149488       16.33571199938070
C           12.83632394674867       12.20498729759736       23.45522356663661
N           21.02668202423477       22.29729103554736       18.88783125834888
O           19.18490769478521       23.60236919935338       18.99031228342276
C           13.90987917336298       12.11958736884961       22.58141181207266
N           20.63885323991922       23.35936664168264       16.13105909602566
O           18.70470042444074       20.63406697612159       17.54844554399042
C           14.29522734936065       13.26907592921717       21.91788856031161
N           22.05420173137479       19.16756909040446       13.21495043163208
O           23.05655980217140       21.16986836972614       20.24952312419958
C           13.61313680408936       14.46323103377146       22.15009078243669
N           27.26980261263945       16.68133969394081       13.06347117470114
O           18.55602863579655       19.91142412601939       24.68134505928954
C           14.02958088275568       15.68284093203549       21.45082437328661
N           16.37587761837870       20.65171013419498       19.21719732303801
C           12.04541788282603       15.72012230169810       19.92219408011944
C           12.44409909438725       14.86359138628035       18.72113613776067
C           15.21424600931406       16.37537824915198       21.58008567426337
C           16.37741283283707       15.99520805570078       22.44203001967600
C           16.44911175351001       16.68129868199756       23.82468719158825
C           17.59510928408561       16.05379214818051       24.62424582620820
C           15.13838650268010       16.50547445478330       24.58846917146476
C           16.69878605471910       18.18772420688807       23.66875753459782
C           18.82020478542983       19.24777770077835       23.70273672110229
C           20.18693011362837       19.25618744814713       23.03362909689425
C           21.93906334782800       21.08086594531461       20.74628204170430
C           20.67503339233232       21.37200755340877       19.93650469573945
C           20.27673703381327       23.33307631029931       18.50575413531290
C           20.90789901978718       24.12475625061849       17.35118639018144
C           20.44176175458891       25.58387014982508       17.27953496249613
C           21.08861300098948       26.29166859878245       16.09103909517852
C           20.82693627677415       26.29063577518298       18.57887382521834
C           21.60649871203695       22.53905173922670       15.71392429620326
C           21.41890022455946       21.67610471448767       14.45720899261850
C           20.77549243854103       20.35198721482104       14.88674272116412
C           20.71165869091675       19.37607990987663       13.71039264996340
C           22.76363923182947       18.10981036068599       13.65732314303866
C           24.18027298771767       18.14925475993622       13.40956342549154
C           25.38065610313273       18.06037770100375       13.40352882602962
C           26.84008583741741       18.05363097494421       13.36285684186471
C           26.77609600796743       15.69288704559426       14.00107180777009
C           28.69152859935721       16.50634421499086       12.84572142846589
C           27.26911320986367       19.01277228028446       12.24127088637558
C           27.32982395564619       18.59767600601769       14.72318680762313
C           22.65810354964895       20.36886401658434       12.68853012211545
C           22.77447461425302       21.42979581876480       13.78551401011938
C           19.28177643526157       23.43645578765575       15.63303172735685
C           20.15750703908760       20.03246952461815       19.38020357553265
C           18.72544659870627       20.04438165131661       18.84501636401504
C           17.71653153172492       20.76405641138552       19.75719939750388
C           16.37374494193855       21.26074957376023       17.90001717809945
C           17.40075509061861       20.56760938916984       16.99717886109697
C           22.83999656280724       20.34808432838230       22.90136089457485
C           22.63343789438593       18.91787865219585       23.39726706123592
C           21.25258250248038       18.79200882285609       24.03974281209067
C           15.12152774199661       17.49640774051222       20.69890671353492
C           13.85722212398350       17.41509038697345       20.07385750056202
C           13.45157921040048       18.39170813380528       19.17427631856719
C           14.30696032544465       19.43352438735110       18.90943879094894
C           15.59708209087809       19.52347421925806       19.48027350797083
C           15.99740665229927       18.53423145583030       20.37073967338292
F           20.60473749247297       22.31459750083790       13.51687633969970
H           12.44159032021493       15.74343272739945       25.47532721453396
H           10.96035688433591       16.65956465886947       25.18101604396572
H           10.91467924627283       14.88680167586761       25.21317254260760
H           12.36733033814135       16.57307132716346       23.11737890287398
H           10.66686068784411       17.61669630566414       21.96407620488830
H            9.09831498883821       16.77474840801376       21.87753166827207
H            9.68905534093007       17.39568724103507       23.43208954688059
H           12.47953963105867       11.33903124753037       23.99668699199996
H           14.42003547343698       11.18359521037766       22.42168193299584
H           15.11274012444320       13.25327899190763       21.21139304440703
H           11.51235966407984       15.11223212031766       20.65611249390229
H           11.38462110570361       16.52768845607384       19.59958480248710
H           11.55214854513777       14.47247735072879       18.23518544988811
H           13.00613151843438       15.46000707283437       18.00292638523178
H           13.06394495678630       14.02615930921552       19.04212510712954
H           16.34460076815912       14.91819086005656       22.61568924318797
H           17.29856028142981       16.22725031406800       21.90426262496203
H           17.37380358473835       15.01198428929174       24.84043441337340
H           18.52460184110400       16.09891870137592       24.06099733265888
H           17.73477728884396       16.57963709091105       25.56650592597678
H           14.87116973357938       15.45307264312753       24.63494949865370
H           15.23496459527814       16.88610793973832       25.60192555224612
H           14.33705839735762       17.04442464935561       24.09172678395051
H           16.65463584611557       18.69209525846166       24.63802503517530
H           15.96089982757022       18.62876520841244       22.99581265678067
H           20.15966813595012       18.58204475934228       22.17233488540674
H           20.34921205180262       21.25968060164669       23.33366522192182
H           19.92646961311033       21.83864888948759       20.57797942596595
H           21.92435260449871       22.12857241021138       18.44618774808479
H           21.99485888491700       24.11480164102782       17.48450896374885
H           19.35308873099116       25.61448793811346       17.18882480059138
H           20.75254590517467       27.32420145451183       16.04657306166249
H           22.17246219127273       26.28683775117534       16.19863042712683
H           20.84028685242491       25.80897903435078       15.15005908865139
H           20.53857021919339       27.33632299454067       18.53250911674725
H           20.32291463061235       25.83366272124393       19.42388208164637
H           21.89895587803918       26.23450102989890       18.74095234275335
H           21.40765019167731       19.92792339657127       15.66818026800366
H           19.78848905212793       20.51647320606642       15.31224508236970
H           20.09459303520510       19.78459033992112       12.90667704642240
H           20.31097728527936       18.41527566444482       14.03637004445817
H           27.31015036518735       15.70429603153864       14.96390849771014
H           25.71538348417646       15.85456708632133       14.18664950446816
H           26.90151580639377       14.70584342488646       13.55620219036182
H           29.29411632731788       16.65355177194090       13.75520139569200
H           28.84862805426875       15.48540601971365       12.50010860583172
H           29.04062449340456       17.18218600718602       12.07174628740034
H           26.71659460768652       19.94451939344539       12.33602904404578
H           28.32908106102539       19.23796665107431       12.30915234283843
H           27.05079009968211       18.56942448451666       11.27410515464634
H           26.98183215938753       19.61898493157462       14.85705007093832
H           26.94092809205259       17.99530921849191       15.54179825876473
H           28.41642521536674       18.59079560370680       14.75835357985570
H           23.64406724601207       20.13427855473155       12.28803195744559
H           22.01961720994261       20.74200011439192       11.88297748505816
H           23.13386708706200       22.36724973365192       13.36078325650050
H           23.47623271557388       21.10684201188434       14.55548472690776
H           19.14332529980594       24.33141865713129       15.02597803944774
H           19.02814716408868       22.56858464150677       15.03661954278457
H           18.61099591061301       23.47535664198293       16.48912640939469
H           20.82258948315920       19.71666983208302       18.57367792019627
H           20.20421217835707       19.29097591956167       20.17468539697888
H           18.40093488974560       18.99309944828393       18.73463520766625
H           17.95682011498693       21.83134939222305       19.76846459030495
H           17.76726148306135       20.38087675233692       20.77402599947598
H           15.39371757374717       21.21456958650514       17.43564332000534
H           16.65969303967711       22.31031174703946       18.02448650210002
H           17.45027113207650       21.05423209368871       16.02308988199338
H           17.11553621904865       19.51127207569215       16.86513295020097
H           23.76154269350571       20.44743876747352       22.32824473586860
H           22.85958695870047       21.04418176501030       23.74605171745446
H           23.41033141968295       18.66622313976574       24.11738886346793
H           22.70853272842045       18.23001247237066       22.55279813017770
H           21.18596512001742       19.42128664921882       24.93021319676544
H           21.05855857242557       17.76088385481448       24.33425552552455
H           12.48237721664666       18.35589233861575       18.70027509909862
H           13.96046882005513       20.21240512524219       18.25055407090566
H           16.97562042289536       18.54327486266545       20.82178734034159
*
