! SP DFT wB97X-D3BJ def2-TZVP RIJCOSX LooseSCF
! D3BJ
! CPCM(water)
%maxcore 4000
%pal
  NProcs 8
  End
* xyz 0 1
C           11.44687542006613       15.87407231764684       24.91143302257677
N           12.08187855551777       13.37371296214284       23.79941449571914
O           10.51136524465404       15.64684645917539       22.64955814515236
C           11.71318109248354       15.72383789048568       23.41370113166527
N           13.20124010650527       16.19490414755677       20.54630083618907
O           17.91698412912567       18.32648965520231       23.11357071476358
C            9.74929322904307       16.83600732197657       22.63153806317077
N           20.30269648855512       20.65033527961244       22.54973866562809
O           22.32395047392030       17.24664802171441       14.21269067587737
C           12.48286866830475       14.44619799103697       23.13282005782986
N           21.61972661488544       20.82053609148869       22.10830818163311
O           22.70868047525443       22.46618240876006       16.46365634312455
C           12.70971049088493       12.22544743541390       23.61787328390063
N           21.04134110642489       22.40386899763958       18.95333587675488
O           19.19753205777513       23.71265424354710       18.99230485570359
C           13.79017542965559       12.07899596197495       22.76124712435704
N           20.73717768894472       23.51464764899267       16.20253685258902
O           18.74392320334344       20.73808452003859       17.54540237777322
C           14.21322240170478       13.19177537774749       22.05682500417705
N           22.15435132534264       19.30994266775340       13.27788785607543
O           23.01949485323905       21.32090078549392       20.41727166208346
C           13.55495900713055       14.40884489710342       22.22642586914251
N           27.25986756966961       16.63844812002920       12.72542569497607
O           18.35557047027992       19.99009280137803       24.55394111168059
C           14.00913372007644       15.58843871877873       21.48115757881623
N           16.40037969470311       20.50409950577896       19.17931576025048
C           12.03249848824570       15.60020400986314       19.94709638790950
C           12.41702226962129       14.59797885618078       18.86053677557646
C           15.20745622478597       16.26034963146636       21.59058271189154
C           16.36607511531452       15.88460499961873       22.46084507826597
C           16.41930161425188       16.56124357858718       23.84989634955929
C           17.58535433160609       15.96613980521021       24.64527903673724
C           15.11613009577797       16.34344604697065       24.61502425792902
C           16.62615671705513       18.07243115119023       23.68877554081227
C           18.67923713041374       19.25238244959086       23.64765615885040
C           20.05739745817372       19.28359785305856       23.00746343963304
C           21.87821360665998       21.19308610037766       20.84623705482031
C           20.65282336764838       21.45697009308575       19.96844530418738
C           20.31179500696125       23.44909942819168       18.55833866318825
C           21.00187635502256       24.24910914408448       17.44310317728638
C           20.59734075410236       25.72658437764537       17.38823231061467
C           21.33395785816186       26.43457303944561       16.25315283186214
C           20.94628484741134       26.38360496817774       18.72425448071256
C           21.67573503312080       22.65070986268601       15.80963157939302
C           21.49887328182249       21.80850473581694       14.53733187797735
C           20.83055334262433       20.48542235688081       14.93247429105030
C           20.80416545221973       19.51311983886251       13.75109816729076
C           22.84398185181525       18.21808689216454       13.65945382392743
C           24.25394699045868       18.22866728871601       13.36864605368620
C           25.44328121211567       18.07302497540777       13.26231265427629
C           26.89221244530062       18.00942157936298       13.10743739132351
C           26.69313776879523       15.60624859523613       13.57058537270892
C           28.68184021315522       16.41775530307670       12.55668415460949
C           27.25623031809946       18.98537795554094       11.97430371601723
C           27.51780398510999       18.49403570160591       14.43335888839821
C           22.76837633876579       20.51758247177476       12.77787429721113
C           22.86647762931363       21.56149269655969       13.89140395582306
C           19.39849755999773       23.64417146562657       15.66593567138554
C           20.20826059643408       20.11228345996754       19.36421813391634
C           18.78651533487393       20.06849120503903       18.80258975879322
C           17.72527632921434       20.66505558706123       19.74258315800930
C           16.37286726127103       21.19651654252019       17.90531880519155
C           17.45166481751312       20.63373027918356       16.97226484469993
C           22.67692220197079       20.46574556975445       23.04327685626637
C           22.49917252673347       19.01107634780287       23.47477600308619
C           21.09469234696207       18.81798146917387       24.04354056580462
C           15.14056405591795       17.35506848081008       20.67052369651452
C           13.88358279578324       17.26348228637553       20.03036799836976
C           13.51062034545709       18.19992928061973       19.07688605202860
C           14.37136486328147       19.23470219498099       18.79899106395061
C           15.63618854285969       19.36202104298572       19.41638445132755
C           16.02054270365587       18.38723344106782       20.33285094729909
F           20.70754381141577       22.46683882005003       13.58989309802634
H           12.37992719674788       15.77788883477408       25.45712157996200
H           11.01305864353326       16.84633163684173       25.12771226048143
H           10.76760263459585       15.08838525330999       25.22875521237311
H           12.29794304288888       16.58547611378170       23.04898066162624
H           10.38232743146648       17.69866325650663       22.39786227742029
H            9.00931071282005       16.70277935346795       21.84780290899664
H            9.24286506554439       17.00393643380452       23.58494702003907
H           12.32779060819014       11.39149218227437       24.19184609880280
H           14.27747758849762       11.12400753860202       22.64791476626946
H           15.03926814908058       13.12574796796365       21.36389584669555
H           11.44667480321995       15.10073313490159       20.72190147211188
H           11.42536147962319       16.40293215238203       19.52389801334252
H           11.52191473308388       14.17819094908457       18.41168207406286
H           13.00830028851921       15.08168206840850       18.08742995408019
H           13.00261911142947       13.78880745509325       19.29090047374898
H           16.34945511549423       14.80494572781659       22.62385376773145
H           17.28851063567651       16.13569757363877       21.93147911478524
H           17.39343401149765       14.91773173685771       24.86406560597310
H           18.51114554951362       16.03821599384986       24.07777193890076
H           17.71170817989630       16.49714467563368       25.58775218525318
H           14.88157237271983       15.28320612089427       24.65722590077034
H           15.20242175700372       16.72123016782666       25.63025071302903
H           14.29862627227025       16.85988822871835       24.12196066906133
H           16.57232081385005       18.58525197751411       24.65383587023327
H           15.87546633071277       18.48946627637971       23.01421327746110
H           20.06463786374946       18.61802432962274       22.13889242198089
H           20.11556954883900       21.28766197347798       23.32679097651926
H           19.85990134246709       21.89813483376466       20.57139429161371
H           21.94944809537121       22.23605336422214       18.53217817279818
H           22.08395901918536       24.19603772985822       17.60369435519882
H           19.51788816698044       25.80602530790900       17.24013723422495
H           21.05507166936616       27.48493616645279       16.22872544066761
H           22.40895748849687       26.36915778424747       16.40913794900328
H           21.10358659731409       25.99312061434778       15.28789406924080
H           20.69238337843201       27.43956928203979       18.69534803595371
H           20.39045555483077       25.91867572698830       19.53425851467805
H           22.01005699999090       26.28763310526362       18.93108553315693
H           21.42006711963623       20.05500963786706       15.74441570414402
H           19.82329995910485       20.65981993605687       15.30867228901151
H           20.20169705952934       19.92185987003741       12.93617442910409
H           20.39938822465509       18.54958632519556       14.06398224489324
H           27.18913742323193       15.52808134769803       14.55130800753497
H           25.63216734202921       15.79347374722590       13.72968528869422
H           26.80204079412908       14.64917422462264       13.05861411639511
H           29.23787153213658       16.43923801435998       13.50565739011796
H           28.81396500409815       15.43171530506123       12.11153350279889
H           29.10027195343297       17.15447019128711       11.87801920320981
H           26.76904524103266       19.94110578900793       12.15125861690734
H           28.32836819291244       19.15135656318429       11.93234282831427
H           26.91496839344424       18.58243972181365       11.02447550069629
H           27.10776037865018       19.46504860210815       14.69999902800856
H           27.29919494374283       17.79529115104710       15.24001641478956
H           28.59656372449407       18.58705108871685       14.32309370590488
H           23.75859127028669       20.28611534877114       12.38683009378714
H           22.14036896397451       20.90482505332935       11.96949690181120
H           23.23981358038275       22.50314041372466       13.48689238668676
H           23.54683359481576       21.22737598735792       14.67423219523448
H           19.33095052281177       24.50125198819757       14.99648442669606
H           19.10526336201709       22.75215150814323       15.12587405267194
H           18.71330019220164       23.77930066288678       16.50138080195834
H           20.90612250076521       19.85418472397039       18.56343578867057
H           20.27825784961730       19.34807189053588       20.13515076579587
H           18.53038805324964       19.00743502058600       18.62281811212240
H           17.89991938388511       21.74329203499109       19.82126295822658
H           17.79378837296273       20.22575396871470       20.73500966846018
H           15.40334450452886       21.12399780823266       17.42397667039393
H           16.59268196569089       22.25169387411391       18.10056379885805
H           17.48194998871019       21.19620654538932       16.03819840546013
H           17.23336143368208       19.57577158788508       16.75735604823219
H           23.62578030426516       20.62402860317852       22.53166213945209
H           22.61125568780621       21.13055596259724       23.90982997591050
H           23.24682528110623       18.75937960494994       24.22495034350043
H           22.64140626961769       18.36038937850053       22.60994570183867
H           20.96943025313426       19.41372636595955       24.95150188896643
H           20.92056683324409       17.77096225094079       24.29207631873787
H           12.56144700698838       18.14130689322588       18.56717190104832
H           14.04011795251949       19.97592770563517       18.09211196682546
H           16.98814061781569       18.41252578638192       20.80648962997849
*
