! SP DFT wB97X-D3BJ def2-TZVP RIJCOSX LooseSCF
! D3BJ
! CPCM(water)
%maxcore 4000
%pal
  NProcs 8
  End
* xyz 0 1
C           10.83771416850001       15.84196471700940       24.98397614226788
N           11.71764036746034       13.36364043581847       23.98299847597118
O           10.06827909725383       15.45998318693302       22.67873819802042
C           11.20934789934291       15.66648497821017       23.51034401344597
N           13.01194146759292       16.15859901859031       20.71860226060591
O           17.46075609914287       18.59268976117332       23.55378443746430
C            9.20090177058661       16.56882810075582       22.58826378743332
N           19.95927743964248       20.80305075480375       22.93383840097747
O           23.13920275991643       17.23325212848233       13.15899208365013
C           12.09970608066711       14.45230177445915       23.33072244956519
N           21.31889566882121       20.87423346414564       22.61252004189341
O           23.07929402893316       22.28028541892170       16.65695761919902
C           12.44371975853791       12.26445620291986       23.89754154424434
N           21.06793384996316       22.05362922940011       19.24983524628157
O           19.22766976058938       23.34702856342657       19.05577151764549
C           13.61697494639538       12.18798882267196       23.16258247180009
N           21.00067509689623       23.11023639102566       16.39647252402829
O           18.92476047339342       20.22976869025472       17.81646110971750
C           14.02200415645313       13.31778991794982       22.47700951705617
N           22.90392061574968       19.47770904321952       13.00150031565951
O           22.89207460772733       21.11759718272091       21.01894776151922
C           13.25671408513814       14.48363311798163       22.53909127822758
N           27.90599421537863       16.92085413848191       11.54939949280670
O           17.75473134327726       20.49187597611070       24.71396181280958
C           13.71699195229105       15.65819239696251       21.78918525361128
N           16.41380196171473       20.26970092384084       19.20423969758035
C           11.89781640964686       15.50432846908091       20.07849405493895
C           12.35927161874547       14.31434117490042       19.23744863745415
C           14.88618583443154       16.36675070242584       21.96709337116330
C           15.91903094568644       16.12393943984787       23.02082434464719
C           15.78920927684044       16.99068549051153       24.29531743812810
C           16.78244022091244       16.47954423604862       25.34206504663161
C           14.37210743614605       16.91953717796257       24.85882451629700
C           16.09493138413274       18.45993703829042       23.97744267944733
C           18.16999435992851       19.60279887677805       24.00322957450277
C           19.61561883866041       19.51888333047268       23.53892528777975
C           21.71150298863500       21.06446504183198       21.34526813329414
C           20.58384451529700       21.22068775715006       20.32356436850001
C           20.37692876015048       23.07206645547030       18.73268000097075
C           21.14787607563560       23.84310233661844       17.65233195419025
C           20.70708883288780       25.31103013286220       17.55356707904926
C           21.39736956330431       26.00703443048225       16.38333997870265
C           21.06207604534275       26.01526256065236       18.86250850173889
C           22.05052926873439       22.39643758056114       15.97989648421373
C           22.00515142750275       21.67428086642161       14.62556305226227
C           21.49797957537821       20.24348949271552       14.83579552172695
C           21.55702367939734       19.46452559598170       13.52235035467610
C           23.60364593965636       18.33934558832188       12.87866419079323
C           24.95029292223771       18.45972293390551       12.38654436854852
C           26.08968198101130       18.35444309817038       12.01068973650626
C           27.47324996999539       18.32402975482945       11.54513176430755
C           27.78988258460449       16.26940174579910       12.83801055674537
C           29.20580886323425       16.66211211176127       10.96680396374758
C           27.47028442012842       18.87774100666522       10.11024439463465
C           28.30078329670610       19.25503840849914       12.45670507603500
C           23.41665860992596       20.79806333573469       12.72752651792504
C           23.40091424795904       21.65499630955486       13.99564378326259
C           19.67702960192262       23.11414803464006       15.80876963210025
C           20.17356864311157       19.81919522929355       19.83702873735568
C           18.81046129230277       19.73418736387737       19.14627543029679
C           17.67872410696424       20.47665628955762       19.88038217693332
C           16.54298922812861       20.77967358507024       17.85156364758484
C           17.69845893926064       20.07874608859268       17.12382182853133
C           22.25831997903056       20.63471266913147       23.69585534480871
C           21.98065090162071       19.26257050677610       24.30756008085863
C           20.51702181963022       19.18202716649491       24.73947164146052
C           14.91776116448553       17.35791539889344       20.93894446685782
C           13.73789574337851       17.18774048584037       20.17926478131431
C           13.47531731804488       18.02316513099160       19.10164304401733
C           14.38116299611706       19.01126876547172       18.79766953645822
C           15.58769953075357       19.18972538697301       19.51331439897305
C           15.84882469138969       18.33695434323318       20.58043340730916
F           21.15876690110918       22.34146809244213       13.73282294414695
H           11.74044666610924       15.85642891124190       25.58663633596482
H           10.30338044370884       16.77655969567195       25.13490226652986
H           10.21680695094032       15.00739973185962       25.29531968866780
H           11.74184636026967       16.56272582792117       23.15040951055196
H            9.76098385889158       17.48282461502865       22.37430855555164
H            8.52243562018719       16.35519337304477       21.76560351133059
H            8.62293142203966       16.70366021950221       23.50449303168073
H           12.06770686473856       11.41465641964935       24.45098693706000
H           14.18849611237737       11.27471740164751       23.12507139457703
H           14.92096889409133       13.30720684583950       21.87700869864662
H           11.18909265147005       15.16490927049209       20.83881261481638
H           11.39933583667891       16.23941245508584       19.44213522635902
H           13.10332398855465       14.62881582793232       18.50912050189860
H           12.79815562368995       13.55107531067236       19.87641082387676
H           11.51295381388988       13.87988056560006       18.71217387719402
H           15.86323716775938       15.07875715776267       23.33166174788655
H           16.90711917651644       16.30128276732196       22.59270946630688
H           16.52174546099121       15.46869799306280       25.64335498655333
H           17.79228117850404       16.47188110517275       24.93862605584257
H           16.76646440760546       17.11688692379077       26.22391450343958
H           14.08526077519346       15.88208026208667       25.00881938485416
H           14.31445434098632       17.43991274019431       25.81150234082293
H           13.66713995661514       17.37714479203209       24.17130628356778
H           15.94451807867802       19.09253395846806       24.85738994615217
H           15.45678043394164       18.81867021312127       23.16650590236908
H           19.69948831108827       18.74086105690792       22.77448648559837
H           19.71862689663560       21.54669065861446       23.59159180744798
H           19.73971598776444       21.72619842217849       20.79390651211350
H           22.02204503793521       21.87887442311426       18.96041285104056
H           22.21473835999837       23.81247820682766       17.89858616322877
H           19.62256906679869       25.34990937743488       17.42452604926980
H           21.12717492287945       27.05734780363011       16.37069632563881
H           22.47782697912688       25.92918434117941       16.48476224504078
H           21.11341123980654       25.57064788871989       15.43069092555217
H           20.75258006576477       27.05569254037810       18.82205528328993
H           20.55879901877063       25.54001413483408       19.70083143018077
H           22.13555872224495       25.97759556754430       19.03376364872397
H           22.14283812013662       19.77498750840392       15.58077233417396
H           20.47872876953767       20.24728407856087       15.22334998505427
H           20.88855089746232       19.92578811230149       12.78830274261945
H           21.26542512338420       18.42467040104621       13.67963574488227
H           28.58294814048363       16.55951398362063       13.54172543072235
H           26.82295901705914       16.49664004176169       13.28278880672554
H           27.85044339853749       15.19347232102655       12.68376808696461
H           30.03883864054599       17.05941155093530       11.56577118357465
H           29.32494428319871       15.58203655484188       10.89621333585957
H           29.26098044334997       17.07111157834875        9.96247652490159
H           26.86885084550324       19.78302825322732       10.07256271702221
H           28.47960322840975       19.12185042094262        9.78995665755699
H           27.04213461739917       18.14175161320001        9.43575695760237
H           27.91169944867402       20.26738762876193       12.39323800722521
H           28.24479949061637       18.92929940115015       13.49231883904859
H           29.33955816904320       19.26040612138870       12.14096250931236
H           24.43346687058415       20.71627088810560       12.34356304455026
H           22.78174583581120       21.26819037190075       11.96867539836797
H           23.69304544549899       22.67644568215600       13.74892541057627
H           24.09706893220649       21.26858550412068       14.73867806525602
H           18.95513489932653       23.26844211785031       16.60805942865813
H           19.57293895200370       23.90760024099709       15.06793132955189
H           19.46017692229007       22.16211960195845       15.33599473819242
H           20.93210527284359       19.46484372407316       19.13668006512010
H           20.15487331108682       19.14723289796908       20.69240607799160
H           18.53129190057949       18.66538115115081       19.08146086786436
H           17.88129791114324       21.55183025600888       19.83538380045648
H           17.62767548425434       20.17495295442985       20.92411500241850
H           15.62925279205436       20.64997745186148       17.27948422496324
H           16.76734262005436       21.84891131353545       17.92582678228548
H           17.84954459981764       20.51138987877268       16.13438620755612
H           17.46622775692476       19.00604990598614       17.02218548516952
H           23.26174009710742       20.69613410570305       23.27718507236623
H           22.12881636036854       21.41885054235762       24.44837802275422
H           22.63500126001999       19.10558688240008       25.16312816531854
H           22.18952528572974       18.49040605349426       23.56556779337819
H           20.31912692270850       19.90147950295484       25.53733446093011
H           20.27939130790842       18.18468295466209       25.10816592379668
H           12.57787651251640       17.92107359163277       18.51016632966538
H           14.13899628343114       19.67519513481792       17.98432806111451
H           16.76199671565511       18.40710856216546       21.14798577356445
*
