! SP DFT wB97X-D3BJ def2-TZVP RIJCOSX LooseSCF
! D3BJ
! CPCM(water)
%maxcore 4000
%pal
  NProcs 8
  End
* xyz 0 1
C           27.60903508754444       -1.64327645803549       17.79448212428741
N           25.65655117436381        0.12613039865177       16.82011051818754
O           25.77121267927155       -2.86392408798212       16.70963258184353
C           26.12871133405536       -2.02444257337857       17.80617024511008
N           23.07270761538034       -2.83416348819534       19.05337857706793
O           24.22393442138059       -1.04118108531590       24.40881139479333
C           26.26817425493077       -4.18182868769714       16.79097744777322
N           22.70621158717520       -1.97772612003354       27.49112377253080
O           19.66069570295187       -7.88920005624173       22.77035649023491
C           25.25472626670610       -0.79051792104478       17.68956245649752
N           21.79053787912382       -1.41146610735647       28.38396292825405
O           16.78642885332189       -5.11722007943853       27.01603118673733
C           24.94046117898320        1.22409103163032       16.65676688595980
N           19.03041619791578       -3.80577696937602       28.43451099450553
O           19.86822724358608       -5.40952924507564       29.78839948207347
C           23.77721902890254        1.48231006159720       17.36525376914486
N           17.27849687821094       -6.48737876530933       28.71891343516128
O           20.34405701364679       -5.68763863195019       26.36129946298833
C           23.35194213960698        0.53282919975835       18.27673540035125
N           17.64553329732781       -8.24227986067624       23.75833927020047
O           19.76832736014264       -1.43837193818295       29.35903560873716
C           24.08736498571929       -0.63962222480797       18.44863428724213
N           15.77688570720366       -5.39048196102097       19.53873741945816
O           24.94153011665207       -2.49649947496078       25.95761118323749
C           23.60465828869875       -1.61952040478290       19.42983681193979
N           21.41938317385698       -4.57569955327981       24.03193317994388
C           22.78684322731531       -3.24229360112794       17.70031864175884
C           21.39676511110058       -2.77814020588533       17.26884335919424
C           23.50961755195395       -1.45642475314965       20.79289451239815
C           23.96045428443221       -0.28393662195469       21.60291692181824
C           25.31914861117484       -0.44388339111002       22.32534474614851
C           25.72277858842034        0.91644195588380       22.90069483551170
C           26.39104540366909       -0.92768470559912       21.35052443365259
C           25.22624500029918       -1.46056269426947       23.47036653880189
C           24.18120009521808       -1.62963335925783       25.58624926090838
C           23.08063476669463       -1.02925578242076       26.44701084777301
C           20.58795672488716       -1.96328940787102       28.61213933734792
C           20.29801001125812       -3.31080089857807       27.94259331706915
C           18.91303832597653       -4.82605602544358       29.28734707540346
C           17.46276419115360       -5.27623824298718       29.53288465611290
C           17.14408587973195       -5.43138150548852       31.02185336048783
C           15.68871925980187       -5.85536258394691       31.22009859792258
C           17.38896994409580       -4.08733946365809       31.70985895589741
C           16.98239708985542       -6.26263750208976       27.43500285482676
C           16.87522112252694       -7.42240307987649       26.41572834615244
C           18.25515432690682       -8.00533398283310       26.10126907349731
C           18.21339362281223       -8.94008988080644       24.88717849258038
C           18.44770003570004       -7.66738506983713       22.84377366051782
C           17.81192858915738       -6.76740289368836       21.91759930620931
C           17.46671942236291       -5.94672566019933       21.10612077410529
C           17.00324692036308       -4.91054402541716       20.18716177975051
C           15.12467299620361       -4.43681366584223       18.66465709972209
C           15.91903363796907       -6.66826599040350       18.86819736480416
C           16.69266612778461       -3.67981748413977       21.05784799318018
C           18.16452026316737       -4.58239507811272       19.22555726230516
C           16.27099502332863       -7.86073915505666       23.97951040613816
C           16.18915990745039       -6.88576342390055       25.15358322468775
C           17.72742032752241       -7.74367264638638       29.28395259881461
C           20.27075304397952       -3.22411026266753       26.41128839149973
C           19.75714011461581       -4.52984043733541       25.78195611129647
C           19.98975624940518       -4.51790874995089       24.26720669026176
C           21.95348015060288       -5.83138111005154       24.53441537248971
C           21.71845244686425       -5.85028098576390       26.04408403154177
C           22.18583411535188       -0.16204870048922       29.02061999309348
C           22.51093007477390        0.87719458263424       27.95016386464347
C           23.57856682891689        0.31395621403523       27.01450041304371
C           22.85981006704727       -2.62482355789632       21.28709140483949
C           22.59815735996760       -3.45980782972280       20.17178235999693
C           21.95220083074441       -4.68324720133102       20.32447643468557
C           21.57203600630035       -5.06744572312299       21.59303957780602
C           21.80681165177982       -4.23824373898227       22.69931915069012
C           22.43289743313408       -3.01952476619852       22.55031527667963
F           16.05882037061715       -8.43740095326664       26.94595906861426
H           28.23136176695151       -2.51926546039744       17.95306696157680
H           27.84942695225751       -1.19017739083906       16.83694769029353
H           27.80693428301825       -0.92790023328292       18.58671552397463
H           25.88379447363581       -2.55162485320293       18.74312547191280
H           26.01588578006515       -4.63403314540867       17.75849861575276
H           25.77894694833343       -4.73302889971728       15.98940984462379
H           27.35206631123129       -4.21663046560787       16.64607914233966
H           25.32591905789806        1.92371047025272       15.92736215500952
H           23.22316026686519        2.39307612362526       17.20647546630265
H           22.44813560020883        0.68265157212532       18.84951786031825
H           23.54626080633243       -2.82502406670048       17.03624382216746
H           22.85003515081208       -4.33212406963722       17.65279203777564
H           21.34197766471287       -1.69237316920393       17.28620804049960
H           21.18654586976724       -3.12262340211212       16.26102540538937
H           20.64207945986371       -3.17658346644767       17.94332233702083
H           24.04280406893537        0.58216172147162       20.94394514077939
H           23.20302457992615       -0.07155983952754       22.35930713359258
H           24.95549640905704        1.28346855116135       23.57660546930841
H           26.65743756234367        0.83461722715039       23.44888349749911
H           25.85713806121247        1.63809002082718       22.10095008197752
H           27.36636114625894       -0.94237880744623       21.83000248366875
H           26.16433634252617       -1.93113942185361       21.00105900083983
H           26.43387647779395       -0.26384819811832       20.49116070836644
H           26.18261638877880       -1.54225902181263       23.99691144604972
H           24.95608107726654       -2.45297254250718       23.09721847527921
H           22.19948720686472       -0.85042504664477       25.82149057471193
H           23.54394881392694       -2.29092111039448       27.98370835063804
H           21.05912388574906       -4.02719021721587       28.27240279145829
H           18.20008352295857       -3.37103210429942       28.06047823293531
H           16.78178003151501       -4.52832577332732       29.11414169977050
H           17.82627211317099       -6.16259876754489       31.46288235034886
H           15.49106454785100       -6.02170972391032       32.27524822804077
H           15.02444719420635       -5.06973516888856       30.86458013905239
H           15.45241503993049       -6.76483718899264       30.67419733405560
H           18.42340827317932       -3.77249719090185       31.58769420064602
H           16.74802173461979       -3.31643547889453       31.28746412633140
H           17.17636497346549       -4.17130865929271       32.77189338593833
H           18.93429946237150       -7.17416441020279       25.90196435439480
H           18.64769827194331       -8.55091613833877       26.95697387726596
H           17.59664237487143       -9.81602282033061       25.10282389180673
H           19.22478119101939       -9.25706497678925       24.62938854630717
H           14.15460077600909       -4.85093052414176       18.39083019234417
H           14.95757774645799       -3.49843828636769       19.18464791852774
H           15.68613113384065       -4.24492869956586       17.73817593896663
H           16.44049983313901       -6.59367901250834       17.90216892555489
H           16.46173440513502       -7.36196894814745       19.50715023629271
H           14.92208861496216       -7.06929564114919       18.68620905938029
H           16.60466572665546       -2.78765749152867       20.44472284520847
H           15.76725321938547       -3.84024606185841       21.60367296228482
H           17.49955667024381       -3.52710409543920       21.77053901529455
H           18.42979834496291       -5.45262811622537       18.62986623942229
H           17.88302648438313       -3.76690698748260       18.56418374888149
H           19.03646861909728       -4.28449040185657       19.80453636322508
H           15.86877335214635       -7.39178364655626       23.08112207389361
H           15.70000158404824       -8.76635968116801       24.20379022656765
H           15.14790301420333       -6.66716921894353       25.38958710242300
H           16.67950994890848       -5.94934787915914       24.88628634593902
H           18.81821058384414       -7.73262544024076       29.37916027534715
H           17.29046558735987       -7.86987863523296       30.27333772609191
H           17.40858190200054       -8.57938814323650       28.67011287153495
H           19.60871444465566       -2.41498620811238       26.09975840367784
H           21.27591320378609       -3.03537526983245       26.04415692240261
H           18.68706779563480       -4.63821952692026       25.98641872298504
H           19.59100084651575       -3.59732111906001       23.83420943583835
H           19.46241852760910       -5.37665417873290       23.80878116346225
H           21.47213466413562       -6.71139779886096       24.06763278868019
H           23.02736192392374       -5.86421425888594       24.33253565416121
H           22.31392716311204       -5.05629679049938       26.51162237099835
H           21.99916750621223       -6.81390538192045       26.47267029495908
H           21.35801143384411        0.15391055115989       29.65484465840906
H           23.06691541064904       -0.35418878997347       29.64194613165651
H           22.86480858188749        1.79190408309075       28.42398784007671
H           21.60674084846158        1.10572180690110       27.38394541034733
H           24.50818062246424        0.14864199837547       27.56521891489828
H           23.77839564347496        1.00160923975825       26.19382515493995
H           21.74580693340663       -5.32143215829355       19.47815784737671
H           21.07001374860917       -6.01399380982899       21.73815937001093
H           22.56359041017940       -2.39290388633301       23.41612826122117
*
