! SP DFT wB97X-D3BJ def2-TZVP RIJCOSX LooseSCF
! D3BJ
! CPCM(water)
%maxcore 4000
%pal
  NProcs 8
  End
* xyz 0 1
C           27.62829628557640       -1.81782408006370       18.11393404027459
N           25.78250962437814       -0.11995367722426       16.81266783534614
O           25.96790262821890       -3.06815913403576       16.80315054253983
C           26.16341948467433       -2.21671893339132       17.93254557264642
N           23.08238425671605       -2.99893436192736       18.98772046919761
O           23.92969619702569       -0.96024498052040       24.29398195404266
C           26.45493535130789       -4.38194171311760       16.96587315428055
N           22.61428369013977       -1.94032466020641       27.42579487946152
O           19.75304040061441       -8.12478839924018       22.93362075259866
C           25.30235435739913       -0.99440805735249       17.68459572879220
N           21.71392465454802       -1.43934638677557       28.36901966840365
O           16.74543935739573       -5.13331446978375       27.02907042829813
C           25.08705100723058        0.96759621638867       16.53194300680777
N           19.01171786173420       -3.88094937016801       28.42784708902850
O           19.80448833287013       -5.67664149168362       29.55223648252426
C           23.86361717133557        1.25649149338390       17.11590007017311
N           17.08968502731948       -6.50615840377891       28.76766204832343
O           20.34298148366697       -5.74310991965533       26.33645605178798
C           23.35692807396844        0.35300022630869       18.03135283773111
N           17.69431639794405       -8.35072304593510       23.86803877109933
O           19.72929657000607       -1.57210703307182       29.40508564791492
C           24.07211580220021       -0.80667307018739       18.33039902890509
N           16.90602714396406       -4.01544246675601       20.78814201146439
O           24.90406313482409       -2.22417853772733       25.86937905759403
C           23.51747827250974       -1.73428813868218       19.32267984589722
N           21.35834107737388       -4.62367465617171       23.98302163950641
C           22.91582300091548       -3.50221389888514       17.64593733454977
C           21.56939264436320       -3.07624836024870       17.06259443248483
C           23.30574765677729       -1.49462235359892       20.66170419861743
C           23.62147428406122       -0.25094562075687       21.42936717220588
C           24.95879198856883       -0.26104446413134       22.20291015554423
C           25.18874219918920        1.13079048252338       22.80067654520004
C           26.11217487947866       -0.61014598203940       21.26345838645267
C           24.94554370352889       -1.29502898076439       23.33552407490772
C           24.02640301282223       -1.47207542265061       25.50372118654024
C           22.93327116401165       -0.93920417388547       26.41284651158920
C           20.54202803490628       -2.04218596199808       28.61525283496798
C           20.26869018550822       -3.38040562043745       27.92076190493517
C           18.87340421689719       -4.96673827844270       29.18972635679509
C           17.41429065804603       -5.29866371636955       29.54334883499176
C           17.21753879186783       -5.39734225634608       31.05901104972215
C           15.73597956806561       -5.54343018741663       31.40217659131096
C           17.77786558061646       -4.13033333525781       31.70969291530765
C           16.86246831579689       -6.28302685204858       27.46749669186394
C           16.77596937738461       -7.44469694704964       26.45204303556729
C           18.16333113903161       -8.05934911040243       26.24263225723027
C           18.18537312367052       -9.01979880284071       25.04969723971465
C           18.54687844440279       -7.86375094828765       22.94726430913661
C           17.95401692476412       -7.01112665770426       21.94857465488970
C           17.61619597220911       -6.22469290827159       21.10126153768911
C           17.02672766434850       -5.31577329443075       20.11844001881461
C           16.02345812364098       -3.05312840356968       20.16171360485171
C           18.18317425679060       -3.41002278756698       21.11094694353219
C           17.90326148783162       -5.30249644822904       18.84964202818276
C           15.64182988803804       -5.89182675548755       19.78106791233056
C           16.31909785624667       -7.92871344698499       24.00315842738173
C           16.20356548322449       -6.90818340279750       25.13497852985425
C           17.38537961298927       -7.78620057624879       29.37368245240448
C           20.21287887541450       -3.27865654126703       26.39176022773209
C           19.72390799334498       -4.59581432667187       25.76614609004551
C           19.93572171696670       -4.58268987844789       24.24795170239782
C           21.92529019282905       -5.86321202801588       24.48982436523451
C           21.71528610314089       -5.87112458786990       26.00273980088449
C           22.07486689092159       -0.19782642749619       29.04028858656095
C           22.35755561943814        0.88780631308647       28.00408303013644
C           23.42167646134688        0.38585694964810       27.03139793863800
C           22.69532039547617       -2.67195279315296       21.18363051704066
C           22.56262502650908       -3.58457805767642       20.10858143389290
C           21.99736632804409       -4.84217996251509       20.29814836379476
C           21.59398877218581       -5.19184470279392       21.56874799924262
C           21.72518559988266       -4.29683721849382       22.64219045994491
C           22.24584997238866       -3.03538938154905       22.45034086850353
F           15.89659072173563       -8.43748333018624       26.92118952974345
H           27.99719850533488       -1.39291723472700       17.18585551143407
H           27.70787778997069       -1.07548736600256       18.90144821409911
H           28.22964042641765       -2.68039938691619       18.38648226771778
H           25.80293790566401       -2.74041359227877       18.83314536758611
H           27.53758441594227       -4.39747839584689       17.11932200326064
H           25.96267694869290       -4.87699061361184       17.81273562532462
H           26.21402483307947       -4.90381752605130       16.04142894442029
H           25.54252901448170        1.62881768001990       15.80860560190944
H           23.32606747434745        2.15234474903515       16.85538192595267
H           22.40477267715097        0.52412526805827       18.51127448757347
H           23.72923617888196       -3.12943482664409       17.01926330046322
H           22.97880699779082       -4.59187081576879       17.68474229381474
H           21.51407155161767       -1.99163210323253       17.00156019657106
H           21.45074801120633       -3.48924789167435       16.06562749280982
H           20.75782317487018       -3.43292085664798       17.69266257833232
H           23.65608441504004        0.58992093353519       20.73459317423858
H           22.81762377850006       -0.07495358007229       22.14606262736687
H           26.10403639262320        1.14029984800013       23.39019770540417
H           25.28255608577946        1.86893503382021       22.00949483608951
H           24.35689320381109        1.40987664516921       23.44144768924692
H           27.06547997615114       -0.52277318412961       21.77799156064590
H           26.01025822473225       -1.62857108500734       20.89786331647199
H           26.11105625482039        0.06514287585549       20.41172311721611
H           25.91133527656282       -1.31407899248906       23.85319712519172
H           24.74176830978125       -2.29927149205554       22.95161492687105
H           22.03133937233004       -0.75142637020034       25.82115833488520
H           23.47506278080741       -2.25816518595292       27.87130760093250
H           21.03923756054687       -4.09654265211890       28.22510938537289
H           18.19194043402747       -3.35160263033591       28.17220973672372
H           16.76451351960311       -4.50652167697669       29.16022814522658
H           17.78968864984008       -6.24466223799773       31.44209297755125
H           15.21530567568429       -4.61631060608597       31.17435177152187
H           15.26967908683086       -6.34002517292887       30.83151625796081
H           15.61673587627321       -5.75181377628006       32.46147276759898
H           17.29269144578326       -3.24083246286037       31.31532440395869
H           17.61730228457666       -4.16828503799045       32.78313951545842
H           18.84556127094677       -4.03953725613249       31.52471914725425
H           18.86924249944415       -7.24516618943744       26.07342600631408
H           18.48673782265443       -8.59298638137536       27.13200859298130
H           17.54620820166211       -9.88387242687666       25.24900351757390
H           19.20713856905044       -9.35343234808124       24.86168468539802
H           15.01613189926218       -3.45348744747913       20.09560708151819
H           15.99391886040322       -2.17183419614939       20.80075505897185
H           16.35598936219493       -2.73826691869612       19.16037782164707
H           18.02855477227847       -2.68890820301162       21.91356007555864
H           18.87881627276620       -4.17020254851897       21.45977002678589
H           18.63937280804055       -2.88326749619555       20.26098245573314
H           18.93351882237245       -5.05345328670502       19.09478174190685
H           17.88698386892998       -6.28424542550133       18.38428920009172
H           17.51759293206036       -4.57286477055807       18.14151203044086
H           15.21221654499966       -5.38075252342155       18.92441128536352
H           15.74321301163480       -6.94680286513220       19.54025469265576
H           14.97993793545042       -5.79167953724055       20.63740929125536
H           15.97856619293085       -7.48580411647627       23.06808727327860
H           15.71484615144808       -8.81123341678565       24.23216402910820
H           15.16020356334357       -6.62985305680238       25.28918237972596
H           16.76100808794080       -6.00747681589405       24.87409445842644
H           16.86680201318396       -7.85743327517314       30.32739336603553
H           17.04138094936803       -8.59922925361773       28.74735213375674
H           18.46120717362125       -7.86577403351123       29.54534240296382
H           19.51639251335960       -2.49226902468581       26.10143803032720
H           21.20339234950732       -3.05126158137803       26.00538235370087
H           18.66098547517183       -4.72877040845882       25.98752317721571
H           19.51874414486971       -3.67001377954103       23.82128783666855
H           19.41236323471204       -5.44848249319585       23.80465607857761
H           21.45436053660839       -6.75739062784115       24.04546698931695
H           22.99413086538102       -5.87717458016003       24.26997965102077
H           22.29448533266924       -5.05626677621081       26.45115231676616
H           22.02604970360279       -6.82193317853280       26.43709607320177
H           21.24023482357872        0.06919888729609       29.68750770369925
H           22.96473767929131       -0.37890194736972       29.65186582965334
H           22.69845218246661        1.78963675294404       28.50844306786175
H           21.44067203908811        1.11641530995591       27.46070144256041
H           24.35804618495256        0.20791273756182       27.56375230843189
H           23.60348263640019        1.11342556250256       26.24190885471170
H           21.87903525580452       -5.53867762579591       19.48120005525860
H           21.16333431102967       -6.16854603624384       21.74423000920853
H           22.30123008142084       -2.35899618528517       23.28633902187492
*
