! SP DFT wB97X-D3BJ def2-TZVP RIJCOSX LooseSCF
! D3BJ
! CPCM(water)
%maxcore 4000
%pal
  NProcs 8
  End
* xyz 0 1
C           27.35797092911771       -0.66415855836066       17.71287070768174
N           24.99379365957707        0.44051395596579       16.69304765873046
O           25.92297495194952       -2.40539932694302       16.73194828630609
C           26.04170015707896       -1.43980767375227       17.77506602041464
N           23.18873293138152       -2.94930763416469       19.06070915260895
O           24.19329318149416       -1.13256580336131       24.41362991605588
C           26.77551182923448       -3.52134613536004       16.86835373456823
N           22.99644489663934       -2.51374863856987       27.45945638911018
O           19.43898272275680       -8.32726068989588       23.26583725816645
C           24.86505440092260       -0.49640122735316       17.62212987943272
N           22.23586732363665       -2.04678271678165       28.53595288153271
O           16.71755509787197       -4.83892841919064       26.82482936110684
C           24.01475277016966        1.30481460991361       16.50060452297297
N           19.04464469773391       -3.82424646457679       28.34925593691325
O           19.39393583347576       -5.56262669575195       29.74770528671589
C           22.84745313754236        1.30539630614289       17.24941216736351
N           16.68911645940434       -6.04810544257256       28.71403777341405
O           20.26072793711702       -5.91687700989220       26.23982823450852
C           22.70516091768707        0.33189723064430       18.22019583853452
N           17.30388310635250       -8.40155600390707       24.05088724373584
O           20.32630282591178       -2.01096770644803       29.70614287026097
C           23.71691493840145       -0.61016136665859       18.41528113542826
N           17.73638427978006       -5.55467215160503       19.07730713543670
O           25.07169212176054       -2.82243767571070       25.59965106726922
C           23.48000872167696       -1.65241367511420       19.42464394728403
N           21.54562718956488       -4.84297096325545       23.99073788434677
C           23.06440217818289       -3.43650863283079       17.70837732652805
C           21.66370409116383       -3.18878530812074       17.15215841470063
C           23.32302806166814       -1.49330527490717       20.78343075334983
C           23.59055154605976       -0.27196018441427       21.60052197213069
C           24.97505640170969       -0.23925137648366       22.29227540551533
C           25.14083713839318        1.11732376516348       22.98204330893208
C           26.09054241214266       -0.43365779896080       21.26694009012984
C           25.11005752387297       -1.35695165949458       23.33409248159573
C           24.29245358080610       -1.90330451322841       25.47832161789859
C           23.36354626015667       -1.41303449414659       26.57417464055580
C           20.99056208319678       -2.47865691430459       28.78558616381620
C           20.42132237115599       -3.63346690563479       27.94719422967997
C           18.63999768915128       -4.76104778468468       29.20745967458955
C           17.11605927051136       -4.82055170716460       29.40169663672704
C           16.72631458106958       -4.70235590246177       30.87707629129791
C           15.20702721241968       -4.67352443493867       31.03515704001280
C           17.32888796171430       -3.40774766500008       31.42540811877361
C           16.60173744564159       -5.93423516271325       27.38337874811021
C           16.39479983817259       -7.17084358348579       26.48507804550915
C           17.71097984784370       -7.95521686751203       26.40602371701035
C           17.67781451108078       -9.01795121316099       25.30213989628146
C           18.25866489394259       -7.97382761809725       23.20264205097615
C           17.82510207319185       -7.05060833484447       22.18644785449859
C           17.67530360539821       -6.18321867626611       21.36441546184018
C           17.39337573828325       -5.09785791103542       20.42984743076162
C           19.09941403496052       -6.02596300113743       18.94958080652468
C           17.41769148461317       -4.62027332737905       18.01713061023191
C           15.88790053044612       -4.80000591141729       20.52742873030892
C           18.19850191866710       -3.87387527355178       20.92061200495670
C           15.97132079649562       -7.84482394048962       24.08394758538065
C           15.91835910852128       -6.70855286359419       25.10403673943377
C           16.77174232402373       -7.28186605037181       29.46664795199240
C           20.48367407271594       -3.46641654714823       26.42838248172267
C           19.83997709805654       -4.66620946884329       25.71096236517926
C           20.13162854580421       -4.59761247873895       24.20766223741313
C           21.89271728650187       -6.17433466416932       24.45065156313523
C           21.61858815891478       -6.21826221043773       25.95313472275698
C           22.85035362475817       -1.01148156012966       29.35724614913363
C           23.22072134188663        0.18620867489885       28.48547549722264
C           24.09429382437104       -0.28173012896753       27.32401571638854
C           22.86200995468895       -2.74696908781558       21.28188109117607
C           22.79599383800605       -3.63281699899435       20.17774658698295
C           22.37343739829236       -4.94819503237421       20.34077340711168
C           21.98016832781062       -5.35759239444596       21.59699659696297
C           21.99181664608017       -4.47538020508358       22.68904163139334
C           22.43339674917913       -3.17673904213609       22.53592718395348
F           15.39277758055050       -8.00373533690043       27.00892702517449
H           28.19842585296935       -1.30917024522287       17.95191319881263
H           27.47999774808952       -0.25581994008212       16.71415333665048
H           27.33037634289977        0.15333137679847       18.42595310713861
H           25.95740071520262       -1.96326219609664       18.74079965402094
H           26.67836283667400       -3.96518268591795       17.86599659598523
H           26.45104592213644       -4.23685707763028       16.11638923856006
H           27.82078051578628       -3.25648581073034       16.69090358949448
H           24.18244869510414        2.03074500770817       15.71711278410298
H           22.07685153753864        2.03758095950028       17.07137741077540
H           21.81146399482770        0.27904818928257       18.82492926409700
H           23.80689869388048       -2.93910595108882       17.08125749677461
H           23.28048550453394       -4.50705440960035       17.71607593687515
H           21.56684555467097       -3.65118617481273       16.17479482947315
H           20.91420949665157       -3.61300093352125       17.81671114425284
H           21.47766600311526       -2.12164427639249       17.05402270076732
H           23.52469529092464        0.60763097621256       20.95732927328329
H           22.82600557890492       -0.19318580112717       22.37514997920762
H           24.33744015199606        1.27952619092315       23.69521695093319
H           26.08954024586921        1.16088420860268       23.51196360632417
H           25.12071969126347        1.91584234503404       22.24584336984410
H           25.97123855236250        0.27024598435928       20.44807073558332
H           27.06359691294697       -0.27618545657417       21.72415462990882
H           26.06077776198474       -1.44253897509855       20.86517965036823
H           26.12471789476900       -1.37552496915579       23.74683551912585
H           24.90502204927994       -2.33816130362596       22.89576020185483
H           22.44862742001447       -1.02186752026177       26.11958968379605
H           23.84420107308499       -2.97611887430792       27.79265938667119
H           20.95761307206215       -4.54181632793205       28.24996438850053
H           18.36266902586680       -3.20850074566381       27.93304222234250
H           16.65133296907779       -3.99220279452299       28.85795875835692
H           17.15737095226251       -5.53762396617170       31.43387378118776
H           14.94440710161554       -4.63355677680287       32.08839807986892
H           14.80298002217335       -3.79032486146082       30.54610262720420
H           14.73743072819448       -5.54751210404727       30.59280150195620
H           17.07876389040776       -3.29659130859550       32.47640829478027
H           18.41251829189608       -3.40741472239961       31.32665579667324
H           16.94389615852613       -2.54640628447771       30.88452991629641
H           18.51787101690549       -7.24606742730509       26.20896976821857
H           17.91798752277542       -8.43653539482148       27.36010280458282
H           16.94754310468759       -9.79454269085373       25.54232979029457
H           18.66709790588573       -9.46327466076015       25.18849875008650
H           19.32622748309014       -6.72577620326100       19.75239679123088
H           19.19591595796699       -6.54621487911647       17.99708465415654
H           19.84185568428994       -5.21411191266205       18.97862175146187
H           16.36605534699482       -4.35348343986518       18.05729423403571
H           18.02639976802419       -3.70422449190244       18.04452973669039
H           17.60448150303670       -5.11948088531834       17.06716388034260
H           15.32534863101870       -5.58477616604241       20.02990200566263
H           15.59405020452398       -4.76513092361215       21.57388022152994
H           15.65328631875080       -3.84108328272024       20.07567201355925
H           19.26225488367042       -4.10048076768060       20.96847368945285
H           18.04000036592577       -3.03152424913473       20.25277570430246
H           17.86440909561890       -3.59750595687244       21.91737518774570
H           15.70158402999326       -7.47656998719216       23.09416024628793
H           15.28093662462219       -8.64022962052380       24.37633853892615
H           14.90211404791125       -6.32434803963245       25.19593340345260
H           16.56632813895106       -5.89263481424972       24.78201502981453
H           16.39339178103350       -8.11819743029814       28.89328197204746
H           17.81075053082402       -7.45984429435219       29.75123682414953
H           16.16929665168699       -7.19382504942334       30.36616200886677
H           19.94241881386846       -2.56735139196692       26.13497825213060
H           21.51916059604577       -3.38728391897707       26.10756252221261
H           18.75655549116494       -4.65878461565229       25.87560876860773
H           19.87843958261104       -3.60806382276217       23.82535728445209
H           19.51172385133541       -5.34824919836838       23.68285091248469
H           21.30305752515973       -6.96648935716253       23.95712698503594
H           22.95466344556820       -6.34591158053608       24.26590115063978
H           22.28120538666517       -5.51042407423393       26.46483049690962
H           21.77974704987450       -7.22151092119069       26.35026832962084
H           22.13041368161275       -0.73923936859761       30.12840205411795
H           23.74509502269887       -1.43150438632762       29.82886806908085
H           23.75343766523148        0.92176938637414       29.08639277371352
H           22.31005540278032        0.64591234271716       28.09943721117278
H           25.04527802501196       -0.66607687951366       27.70133442693324
H           24.29960861205135        0.53902965898889       26.63820212941310
H           22.33465493520426       -5.63861331948309       19.51133846893560
H           21.62792240344373       -6.36848268772731       21.74349985074845
H           22.41960668139621       -2.51211315864267       23.38449331937917
*
