! SP DFT wB97X-D3BJ def2-TZVP RIJCOSX LooseSCF
! D3BJ
! CPCM(water)
%maxcore 4000
%pal
  NProcs 8
  End
* xyz 0 1
C           27.90277811248051       -1.59659558810901       18.33598429002387
N           26.04130661743084       -0.12466374750124       16.81685943259907
O           26.39977109865293       -3.07307133729813       17.07172836282062
C           26.47768368820118       -2.10675846737584       18.11830083802620
N           23.32699287498339       -3.00080792458072       18.92971794539833
O           23.87965528994202       -0.99817423298266       24.26486025318256
C           26.93823527873355       -4.33538179143497       17.40299809968851
N           22.58149140743338       -2.03413083179595       27.36175784786115
O           19.57014124077656       -8.22395402635689       22.83828476323539
C           25.56217966032696       -0.96371775827623       17.72463688450950
N           21.68881849552894       -1.56159218261937       28.32932144034908
O           16.69699980777296       -5.26621583873199       26.95204147197113
C           25.30981231327986        0.90689620759080       16.43520418679844
N           18.92161216370619       -3.94494684312890       28.25383674896494
O           19.78340712614573       -5.45122734978213       29.69846811026735
C           24.05391414007084        1.17874308894998       16.95637595383664
N           17.16115818278729       -6.57803565567951       28.71157318435503
O           20.06585996884754       -5.70664491083447       26.08482276402992
C           23.54417331612386        0.30692897381657       17.90046353046029
N           17.54923856619540       -8.51344544628266       23.83043410003399
O           19.73490952626173       -1.74014981624676       29.41637122701248
C           24.29193046513129       -0.80226595891509       18.29507158193637
N           16.13250334406035       -4.21699479079277       20.95218638128035
O           24.93187112184833       -2.18715371459991       25.84964862133285
C           23.71014244327496       -1.72308426534012       19.27901511436309
N           21.29019804978337       -4.62339193896843       23.80869006706301
C           23.28720882452746       -3.52295948785263       17.58571133908946
C           22.00428599003699       -3.10846297694740       16.86808455441622
C           23.39669379734305       -1.47361202896029       20.59545351161619
C           23.62241185770116       -0.21979320032657       21.37787655835180
C           24.91647585455110       -0.17948644826745       22.22351059841875
C           25.01629838635688        1.19367363450498       22.89334463411967
C           26.14028122555325       -0.40696196995768       21.33927917849634
C           24.90940070163477       -1.27036726614716       23.30079984591106
C           24.01458726237106       -1.48827158537814       25.47791642532905
C           22.90761873526009       -0.99217373137225       26.39268109407775
C           20.51167477226474       -2.16384651015872       28.56826103615124
C           20.18854878392094       -3.43687527245184       27.77652300747111
C           18.81881405315891       -4.90689882081110       29.17275575814171
C           17.37295491815914       -5.33642101438724       29.47252816266951
C           17.10767853768712       -5.41936074672978       30.97866414975461
C           15.67725999475784       -5.86864474442310       31.26509296434072
C           17.34669516531461       -4.03357973730699       31.58091229763852
C           16.87679561765222       -6.39628298885072       27.41525695309030
C           16.75394694958111       -7.59737039742332       26.44740258641199
C           18.12885354136170       -8.21736399104675       26.17472303139342
C           18.09833961724570       -9.18228641633922       24.98557880798784
C           18.36715014279448       -7.96900658868142       22.91218352543795
C           17.76332227259162       -7.05098989250278       21.98668554208953
C           17.47983223733947       -6.15276112881919       21.23537092268806
C           17.08842049934240       -5.11395628859230       20.28847617966690
C           15.63083318264048       -3.13952025172991       20.12368173546098
C           16.58337331593554       -3.69799262212476       22.22681957786661
C           18.38370139013497       -4.43294732752593       19.79860344557362
C           16.40003852740387       -5.83035367378661       19.11294791903130
C           16.17486355356069       -8.11794467762133       24.02155156384979
C           16.08183591823348       -7.10486657973868       25.16076137070406
C           17.61961690257566       -7.81385529989127       29.30860232626544
C           20.14522151902744       -3.24522574486611       26.25690769329897
C           19.58286248399248       -4.48779810181227       25.53822346649777
C           19.87381719569075       -4.41136834825188       24.03382485174196
C           21.67275774385350       -5.94289623341394       24.27990806915296
C           21.42694045279491       -5.96796691305072       25.78475385161319
C           22.09905837323226       -0.37707206020662       29.07018538603534
C           22.37297023629155        0.76145802240527       28.09030428303621
C           23.40571302561205        0.30419911447341       27.06270754424171
C           22.77341186562117       -2.65901543685933       21.08723861779868
C           22.73952327030247       -3.58622774247899       20.01576786027969
C           22.19286726236715       -4.85393469192597       20.18353086726036
C           21.70372038749055       -5.19664197894160       21.42547484273553
C           21.73540750962778       -4.28950483706303       22.49627811159861
C           22.24319401514581       -3.01753515071818       22.32442256324054
F           15.91816038362145       -8.57480595070385       27.01769319628002
H           28.30327470920204       -1.25794337254007       17.38586938712636
H           27.88717394825927       -0.76299710311279       19.03148088059665
H           28.53571092117049       -2.38002481750240       18.74238324460832
H           26.09584502483326       -2.56875885060880       19.04352421019901
H           28.02096807712116       -4.29541004285504       17.51941701677213
H           26.49063480713374       -4.71826180965192       18.32515731109130
H           26.68924419494238       -4.99172648670714       16.57469409575758
H           25.75449527271855        1.53593166348313       15.67834924910433
H           23.49465130894115        2.03903451528312       16.62737516937818
H           22.56598631411961        0.46305922409470       18.33110924211890
H           24.15880773623621       -3.16137112395939       17.03526198858109
H           23.34732371937746       -4.61254805804170       17.64489203126846
H           21.97241252808972       -2.02926706808511       16.74469775573486
H           21.96341125122699       -3.57083488818865       15.88676079314282
H           21.13560642066149       -3.42191505019917       17.44301416127606
H           23.65584813805006        0.62850407075531       20.69177321866071
H           22.77697910943980       -0.08434036619242       22.05458456249713
H           25.87493941345782        1.22936214759112       23.56064102749507
H           25.13302500424131        1.96788841271337       22.13987745275222
H           24.12002240240992        1.40135259944823       23.47054987648310
H           27.05547948460117       -0.25221904534320       21.90484978406046
H           26.14349260901302       -1.42014100846485       20.95052421220585
H           26.12709011139951        0.28576371109186       20.50148018952860
H           25.86912795619513       -1.30747742813972       23.82606261182371
H           24.71608012376937       -2.25383026853657       22.86231641305327
H           22.01383323560086       -0.78003989798849       25.80006332943439
H           23.44534559203218       -2.35581874702684       27.80379763695735
H           20.94283879381765       -4.18685649622496       28.04370958899034
H           18.08345779696186       -3.55056647567988       27.85314332294521
H           16.68425291773993       -4.60116889656290       29.04438546933653
H           17.82848480848466       -6.10765229747202       31.42942359269329
H           14.97606481868069       -5.11071240616063       30.92027277807555
H           15.43477211978433       -6.80188517338592       30.76735664211797
H           15.53637901809390       -6.00086629419374       32.33491283717966
H           17.18858162538709       -4.06456057516994       32.65491976433101
H           18.36438879154366       -3.69772782701767       31.39306353173809
H           16.66512945820173       -3.30598995588533       31.14942547759616
H           18.82498995860906       -7.40176236993457       25.97588312432868
H           18.47812752053731       -8.75758181548117       27.05042716676158
H           17.47619585564969      -10.05016740980061       25.21687525464319
H           19.11148230393880       -9.51006922521987       24.74826529275955
H           15.24276520496028       -3.53070286281765       19.18874508497039
H           14.81002049551650       -2.66404466872537       20.65982579141755
H           16.38785427985065       -2.37032816121618       19.90999339132295
H           16.94779812069138       -4.51081524449602       22.85147163029442
H           17.38036367306637       -2.94416293865725       22.13295325577448
H           15.73403172825505       -3.23407832044666       22.72744055545510
H           18.90622429381823       -3.94872555780187       20.62159571405835
H           19.04973958939932       -5.18086440810461       19.37591515012826
H           18.15450350053360       -3.69542509980709       19.03430261953908
H           16.32022891808757       -5.17110042084902       18.25414688589736
H           16.98666903142508       -6.69974303698562       18.82259913756669
H           15.40957711445087       -6.15698274345739       19.41419281856331
H           15.78608715414532       -7.67813047273734       23.10253449379258
H           15.59641403113670       -9.01314325426885       24.26907902121552
H           15.03751671186595       -6.87713038562212       25.37747248679165
H           16.57524592019841       -6.17753829968508       24.86712896156342
H           17.20254729906005       -8.67015347968948       28.79108488297981
H           18.71246410825248       -7.84972065164698       29.29296095773370
H           17.29319936389423       -7.85716126830518       30.34350258074199
H           19.50611488449503       -2.39743798947746       26.00861377275807
H           21.15411500973820       -3.05845866669389       25.89422037662831
H           18.50004689748295       -4.54600564648932       25.69704527861039
H           19.59730301132818       -3.42531440563616       23.65690498756303
H           19.26779190596108       -5.17240595518281       23.50622480418977
H           21.09384359498733       -6.75143073995362       23.80394292752433
H           22.73288774342483       -6.09823053891827       24.07521320513042
H           22.07485358741738       -5.23061840132533       26.27171068632999
H           21.62760945481109       -6.95733485743129       26.19769583452089
H           21.29375674357763       -0.13124557788268       29.76164116651637
H           23.00371530260656       -0.61775729234700       29.63906906095200
H           22.74044096896884        1.62881999158826       28.63550469715885
H           21.44505393161302        1.03297716032587       27.58528494854588
H           24.36089391110445        0.10419175509023       27.55481099326991
H           23.56144703141978        1.07000602054807       26.30325533354571
H           22.14921472665882       -5.56354392439688       19.37080346052674
H           21.27886464363739       -6.17833354847649       21.57941772269665
H           22.23476235699519       -2.33063256881733       23.15538061878219
*
