! SP DFT wB97X-D3BJ def2-TZVP RIJCOSX LooseSCF
! D3BJ
! CPCM(water)
%maxcore 4000
%pal
  NProcs 8
  End
* xyz 0 1
C           27.44164008207564       -2.35494225337189       17.98219263675358
N           25.95811310069100       -0.20911813674161       16.86771804251172
O           25.47035150093049       -3.11079006395338       16.72543001773173
C           25.91767544789442       -2.39622106527734       17.87569713103623
N           22.93973975106279       -2.60592281522768       19.06219198426644
O           24.31191450884479       -1.04105807857707       24.44643338298387
C           25.63668751374253       -4.50926162956989       16.79692339625679
N           22.83849060515649       -2.17206130494116       27.48755708856911
O           19.88928225436023       -8.11710963012023       22.95225183386603
C           25.34608679029099       -0.99690642999701       17.73977929019506
N           22.06640482348583       -1.61502763045530       28.51260951214932
O           16.65626481490705       -5.13491287444066       26.68354545504232
C           25.51157919112793        1.01901033641024       16.67840778200562
N           18.98792029643252       -3.60824418643938       28.46795041735864
O           19.57780500260758       -5.46185716197626       29.61088507852002
C           24.42674563043443        1.54594024657341       17.36296472274800
N           17.04496666427509       -6.33716273928663       28.53667912506772
O           20.12160603980602       -5.52056540677190       26.29996476280724
C           23.78349873650147        0.73465729450068       18.27888558423230
N           17.81431460203359       -8.49552478788772       23.80067421656641
O           20.13032741280593       -1.52055303675951       29.64549919635641
C           24.23115679129537       -0.57076428870009       18.47905102231167
N           15.85074164709143       -5.32828787346587       20.07084329559771
O           24.89070318813872       -2.78041233234344       25.73894133309200
C           23.54914016515966       -1.43084049837076       19.45006641158705
N           21.26377285618532       -4.37078746759287       24.02043289058108
C           22.54391513995563       -2.94563253140819       17.71748623659791
C           21.13356874362769       -2.43720428666726       17.42275525392228
C           23.43978719826406       -1.26059366583490       20.81265209694853
C           23.96568993097781       -0.13202898049425       21.64014304912688
C           25.32506698059001       -0.38858795213926       22.33193014204463
C           25.79758340477286        0.91436221865712       22.98101775349335
C           26.36001284506778       -0.85121043362505       21.30605722604017
C           25.20735429545048       -1.47278991112494       23.40967364643869
C           24.24688546222229       -1.77045022251212       25.54297336662346
C           23.31215023810626       -1.14410659791081       26.56510995107124
C           20.82062624640530       -2.04414988903275       28.77782882329316
C           20.31058138812008       -3.25758364303977       27.99719804431770
C           18.71511658628987       -4.72539628341997       29.14740673180397
C           17.21712537593744       -5.06131466277421       29.24323728301393
C           16.69661159772819       -5.02440846355375       30.68286409394217
C           15.21718383390401       -5.40295290919554       30.73150755448563
C           16.88695080494847       -3.60617182484232       31.22355730006046
C           16.83654371904597       -6.23437052034625       27.21835550721692
C           16.81791848829005       -7.48050791523054       26.30585818209527
C           18.23249701729298       -8.04759078207125       26.15319663666283
C           18.30927388680121       -9.08156889312298       25.02449833128840
C           18.67058351338469       -7.92304828257699       22.93322636052167
C           18.08242270690748       -7.04945222905767       21.95324211241667
C           17.75625351148667       -6.20727226427780       21.15663459123801
C           17.30013037526923       -5.16825287631327       20.23858086737794
C           15.45164080604171       -6.63084714146441       19.57227949040134
C           15.18896651847423       -4.27896415500470       19.32254307348903
C           17.62175536410838       -3.83635078815058       20.94130197043891
C           18.11360885133475       -5.26880781495174       18.93395470959504
C           16.41438952471296       -8.14751408405830       23.88693758424974
C           16.21817210127930       -7.07518528312241       24.95464980019841
C           17.43230554079996       -7.54338071333660       29.23640092885590
C           20.25403715619376       -3.06484409491585       26.47757102148698
C           19.62577359159204       -4.28883706994267       25.79024968376616
C           19.84711429651345       -4.21670784712563       24.27750350457958
C           21.71091648602163       -5.68241880855876       24.45416848948682
C           21.47412793215036       -5.77591255569707       25.95933774787659
C           22.67985750332725       -0.54643793966552       29.29017162829976
C           23.15005483480732        0.57105378516548       28.36353647081764
C           24.06569948463358       -0.01323657634593       27.29017111071440
C           22.71723281498939       -2.39134745320371       21.29611939043095
C           22.43327474785657       -3.21193658873666       20.17709736230917
C           21.78687514557600       -4.43433658207193       20.31923948951270
C           21.41424333893003       -4.83187214848247       21.58408500211135
C           21.64869082559396       -4.00776774805508       22.69513548540914
C           22.27710664579566       -2.78954335725633       22.55622185364670
F           15.98492645581535       -8.46945653876654       26.85732580971401
H           27.83761076633489       -3.35280325229313       18.15111155692836
H           27.85153748276738       -1.95074014711666       17.06185388499140
H           27.73070726957279       -1.72210358065145       18.81418887353094
H           25.49864677930922       -2.87738243190666       18.77481413291335
H           25.15265200632512       -4.91465061562030       17.69556473735757
H           25.15497830004275       -4.91055829912182       15.90673753244540
H           26.69298075173214       -4.79486968363601       16.79663477272094
H           26.05470439723547        1.59916049646649       15.94446536243056
H           24.09672602930607        2.55448112025286       17.17781526947254
H           22.92595245004776        1.08990890858297       18.83267341076017
H           23.25787881956990       -2.51236216790010       17.01535237960764
H           22.57718878488350       -4.03243455174361       17.61358297970392
H           21.09749197376739       -1.35407220099859       17.51203912899754
H           20.84356283695884       -2.71676392885052       16.41508589008063
H           20.42489715044804       -2.86784893292247       18.12761955703983
H           24.08873641556898        0.74445649552880       21.00289840126460
H           23.23316553892310        0.10426675955871       22.41405646003003
H           25.93895502462586        1.68082952915547       22.22281691793381
H           25.06663602845290        1.26494301936398       23.70345795890699
H           26.74497477670998        0.76091293345707       23.49048555076986
H           26.40630084119468       -0.14142024593889       20.48256264310850
H           27.34629549818193       -0.92018068981011       21.75973006371429
H           26.09458710225999       -1.82665384860313       20.90692576567322
H           26.18362256261682       -1.67669379870484       23.86059686279378
H           24.82591298326199       -2.40796320676627       22.99032979130640
H           22.44098950874912       -0.72475702300640       26.04936283105630
H           23.63988117911275       -2.67760224907543       27.86790562964462
H           20.95779245988418       -4.10567609513955       28.24892501833452
H           18.23293635241498       -3.01635798432775       28.15685328870158
H           16.65184722983334       -4.32812972798816       28.65900610766696
H           17.28980524037410       -5.70700511678593       31.29817897974820
H           14.63503691925348       -4.68397370377622       30.15955114649651
H           15.03565804393783       -6.38954776678826       30.31550741911889
H           14.86600984340846       -5.38919753653885       31.76119378814764
H           16.29044366911484       -2.90105236818889       30.65233636232831
H           16.57054125428388       -3.55991032975243       32.26100862652932
H           17.92759019684807       -3.29955220250432       31.16560504082189
H           18.89884563187026       -7.21182493671077       25.93739209878051
H           18.56270905981624       -8.50742147662292       27.08067033155175
H           17.69788224459921       -9.95396581485734       25.26651371196897
H           19.34535782261353       -9.39016252365242       24.87181815676929
H           14.39136239343670       -6.77477310481361       19.80517868411412
H           15.58463051590470       -6.73810317721350       18.48303801052533
H           16.02541126124240       -7.40830744568753       20.07537806442723
H           15.38147590340160       -3.31265782612986       19.77830785900785
H           15.48702731033675       -4.24895448605494       18.26391081901531
H           14.11755674494104       -4.46844529293458       19.36537014662835
H           18.65800081802546       -3.85096617135129       21.27988811553037
H           17.49319047536652       -2.99786899890219       20.26022600173722
H           16.97111934467031       -3.70838831100830       21.80592132173422
H           17.92946576036819       -6.21585420647375       18.43051898947846
H           17.85093432770383       -4.44988089552067       18.26726111259122
H           19.17250829608114       -5.20365971504631       19.17009055472514
H           16.06541595824364       -7.77381545422610       22.92535946920259
H           15.85855329380692       -9.05136778339394       24.15018987349784
H           15.15790961399358       -6.86086403976613       25.09130132519815
H           16.71143210328415       -6.15406046357511       24.63991529761811
H           17.05213415435212       -8.42232070698098       28.73230471567600
H           18.52107584859586       -7.58910060926217       29.31771953586068
H           17.01777651497547       -7.52191208154965       30.24038731131695
H           19.64342051473520       -2.19189099544181       26.24314369898258
H           21.25928886792291       -2.92392817855582       26.08719160619026
H           18.55123381320908       -4.33066576711674       25.99863876274253
H           19.51790398195293       -3.24768765194257       23.89927244256166
H           19.24911592652533       -5.00796750168257       23.78468951187051
H           21.18180721276507       -6.50316744168237       23.94337165701717
H           22.77922051599106       -5.77421670443235       24.25125103004130
H           22.13819221208361       -5.07000273932027       26.47226943728005
H           21.67486119733785       -6.78610973164627       26.31983943530787
H           21.93090286145717       -0.19525468598187       29.99885118097085
H           23.52994848391486       -0.96416928694571       29.84069990644461
H           23.67819926473577        1.32481912087064       28.94549074008482
H           22.28471592893285        1.03904972683881       27.89307170302802
H           24.96855973749787       -0.42313137727097       27.74975233304220
H           24.35867000289827        0.75037955309546       26.57146380134002
H           21.59897450645784       -5.07168393888030       19.46770720463869
H           20.92975501896735       -5.78794118146345       21.72179298610900
H           22.41883141297923       -2.17280515219275       23.42762057268794
*
