! SP DFT wB97X-D3BJ def2-TZVP RIJCOSX LooseSCF
! D3BJ
! CPCM(water)
%maxcore 4000
%pal
  NProcs 8
  End
* xyz 0 1
C           27.68591177805094       -2.59260751380355       18.36526936080976
N           26.42386111463917       -0.47639105173237       17.03250532574469
O           25.77938165423558       -3.42464762896100       17.05548680690389
C           26.17302405442051       -2.60019564016125       18.15043830968768
N           23.02649215027138       -2.69107759843434       18.90330758428615
O           24.05021239939590       -0.83808082758444       24.25895404099123
C           25.90145905461962       -4.81070116213116       17.28513112175075
N           22.52776451085017       -1.88735842417583       27.29997914137699
O           19.75354036469629       -7.94533123418568       22.83981729404755
C           25.66200768994080       -1.20658111069623       17.83164357094858
N           21.63485096408813       -1.34687123546543       28.23219205096850
O           16.71983768446119       -5.30960850631036       27.02061113211587
C           26.04229851729967        0.74753285347768       16.71225375351711
N           18.94761632397523       -3.81644804895189       28.35124856186338
O           19.92049156081830       -5.45654121122992       29.55933720254955
C           24.86907215443181        1.32224326857720       17.17510797194177
N           17.31895587921452       -6.61288410958340       28.74403376963677
O           20.19876412192075       -5.56217002887917       26.14539060049917
C           24.06401905310639        0.56743574744105       18.00889530041819
N           17.76708267435415       -8.43397247006771       23.82976031444867
O           19.67793432408340       -1.46904467320314       29.32855983975132
C           24.44940024684422       -0.72668787441645       18.35284023203785
N           15.51650906282451       -5.05317176111288       20.39382712591612
O           24.76776851110070       -2.35717444647817       25.74539932924564
C           23.63410279122108       -1.51403267426792       19.28234211422767
N           21.16604227998040       -4.30620915432229       23.84253003098951
C           22.77023433963400       -3.10097911635346       17.54510427146305
C           21.39293432017510       -2.62772511157225       17.08316845411099
C           23.42821949742618       -1.27600531860914       20.62332157766079
C           23.82943186937047       -0.07093652897212       21.41444476446549
C           25.15477690533083       -0.15852002854086       22.20334904748961
C           25.43464756940570        1.21194169025226       22.82693871904744
C           26.30788877529747       -0.54723776983242       21.28032680713384
C           25.06492144122958       -1.21204046507057       23.31459986894962
C           24.00841957996108       -1.47386267680933       25.41313174792438
C           22.92334092127468       -0.89556802022227       26.30625234765702
C           20.46460239570728       -1.94053237412890       28.51388600373722
C           20.16477635124206       -3.26273524248493       27.80241674827541
C           18.91672482474342       -4.87559410728079       29.16098486311808
C           17.50335008038427       -5.37009462380812       29.50838367329259
C           17.30720397891712       -5.47153313785703       31.02326939960811
C           15.89785409671418       -5.94907895087058       31.36791327032753
C           17.54095144265596       -4.08324099465401       31.62321872421279
C           16.98583234275872       -6.43222600877574       27.45948134698702
C           16.93680998752871       -7.61926487642500       26.46934783988515
C           18.35314696178517       -8.12229925065295       26.17145579653277
C           18.38365509545722       -9.07071495350263       24.96965028914675
C           18.52724628229489       -7.81658472015483       22.90839242141916
C           17.83327064847821       -6.99490302976884       21.95212747091083
C           17.44918002368902       -6.20586999977075       21.12671873881373
C           16.94016506107347       -5.28310839954233       20.11650257246625
C           14.79534687233343       -4.32197211192608       19.37242605050505
C           15.25763474227042       -4.48338308496036       21.70184012818424
C           17.81880799973140       -4.01478581264511       20.15987175895252
C           17.11979657272971       -5.98704444937990       18.76176553114546
C           16.36788042952168       -8.15009821663641       24.04457267055895
C           16.21654490774185       -7.15771104689958       25.19657388482691
C           17.84499928156044       -7.83215385834647       29.31853301214241
C           20.03249482162421       -3.10756286644459       26.28455493321984
C           19.54894453102233       -4.41036936677957       25.62492610706998
C           19.74241545360925       -4.32863832349700       24.10569657406398
C           21.77164075500272       -5.55124649868002       24.28800175439225
C           21.57209026697740       -5.64727106534777       25.79779271687782
C           22.05380700362198       -0.13650867507770       28.92555371220143
C           22.41189809082022        0.94305394621092       27.90812634858925
C           23.46513839907376        0.39735736623088       26.94717818722596
C           22.66489202816280       -2.38002155697217       21.10531812948065
C           22.42541305575092       -3.23586031935504       20.00160461278178
C           21.71456094237066       -4.42332219833346       20.14507301960675
C           21.28317455138545       -4.77230469530914       21.40581510659010
C           21.52996409695523       -3.94191941803514       22.50913725916446
C           22.18801953835647       -2.74025069378764       22.36317700073175
F           16.18505421286593       -8.67128963782466       27.02301727846670
H           27.93724850816738       -1.88408496458322       19.14823828925117
H           28.03351986128469       -3.57904744640998       18.65986609733218
H           28.17427762035603       -2.29234047138350       17.44382446465516
H           25.67147112542029       -2.97058363688612       19.06088670325687
H           25.39774053418179       -5.29525393262729       16.45149690554856
H           26.94724006173849       -5.12922635097707       17.30913301980464
H           25.41662937552842       -5.09576950036378       18.22641710579204
H           26.71482809704590        1.28547872828904       16.05877058281158
H           24.59698303490911        2.32570286288854       16.89116050614003
H           23.13432760045308        0.96272747288303       18.39098894275727
H           23.54999464180706       -2.68835099331540       16.90252977328477
H           22.82811251284411       -4.19129969217239       17.49428044086969
H           21.33833055526764       -1.54228341837620       17.11253341893746
H           21.20912363232099       -2.96100610311837       16.06652775930995
H           20.61944903110087       -3.03098350336497       17.73318886363839
H           23.91554181716176        0.77819124543761       20.73471984338339
H           23.03233029606891        0.14094404475683       22.12904644349933
H           25.54296700915469        1.96254287940140       22.04879311807229
H           24.61714309492845        1.50393052837392       23.48037005205420
H           26.35278877991633        1.18528344041842       23.40854627240664
H           27.24921564053471       -0.54648845898752       21.82407087829094
H           26.14626090967820       -1.53991336308900       20.87040843046879
H           26.38340249278363        0.15766957494994       20.45637194392966
H           26.01725473909953       -1.29885067012866       23.84739280245498
H           24.81087913900469       -2.19344755667111       22.90344803264749
H           22.04767544453204       -0.65589844062282       25.69476197623130
H           23.36213772342791       -2.24929586571146       27.76511510945934
H           20.96292472369167       -3.97182062904519       28.04774002952620
H           18.08334822125978       -3.37557946040752       28.06951143164170
H           16.76783310777822       -4.66312007586835       29.11295072850453
H           18.05917771985539       -6.14769873131691       31.43816943625092
H           15.78723661961921       -6.02480660161675       32.44596944335424
H           15.16623903981859       -5.23553356444788       30.99566612837870
H           15.67651305068028       -6.91711132536657       30.92784606762559
H           16.80876820031079       -3.37434491964740       31.24346856527802
H           17.45299424141256       -4.12632927355561       32.70486643860845
H           18.53249286779750       -3.71126069716630       31.37274877468797
H           18.98198536256221       -7.25243864926722       25.97369655130520
H           18.76052126462930       -8.63995220779620       27.03646053719105
H           17.83530467550686       -9.98895898913391       25.19473638667712
H           19.41708539565248       -9.31162723243795       24.71539251462746
H           13.74466609237789       -4.30345605121679       19.65903599928806
H           15.13474697517334       -3.28135790155425       19.25963901039367
H           14.87553001537942       -4.83076555762449       18.41663175332642
H           15.45227164567506       -3.40145148354074       21.74735074003339
H           14.20894742995944       -4.65030890325689       21.94686830252063
H           15.87159360619113       -4.98021572534734       22.45062283810384
H           17.76965049695096       -3.54363677794711       21.13886906852994
H           18.85599005312905       -4.27847915336957       19.96799495669962
H           17.48840703151204       -3.30676397852444       19.40439144416372
H           18.11654416177647       -6.41872456580642       18.71078200110058
H           16.38956916435304       -6.78519987788793       18.66174599683921
H           17.00747516995808       -5.28266313799308       17.94316405753509
H           15.93221805810440       -7.73471151699462       23.13503753984573
H           15.86530616538603       -9.08926727748785       24.29101273049995
H           15.16212480821576       -7.00528156892048       25.42854949753335
H           16.64277929850144       -6.19534182427487       24.91087925509730
H           18.93758602462702       -7.80129068288493       29.31177776201815
H           17.51050111678573       -7.91688850441441       30.34830733807330
H           17.48486987756971       -8.70060827556530       28.77963278592524
H           19.31109476106325       -2.32366012578794       26.05585673870433
H           21.00057256243631       -2.84676002734003       25.86369176740035
H           18.49194672739784       -4.57595532775237       25.85912167286978
H           19.29458995763157       -3.41009796966287       23.72368176461222
H           19.24341334642183       -5.18962665158835       23.62476470847188
H           21.32330044820015       -6.43251482291940       23.79902333551718
H           22.83895172955027       -5.52381996053509       24.06146328232323
H           22.14241575154388       -4.85118109967066       26.28997517052675
H           21.90340950397716       -6.61650772839989       26.17492996384802
H           21.22589386783273        0.16874221938884       29.56510579661400
H           22.92260862373779       -0.37382526614863       29.54945506361522
H           22.78967144339191        1.82138260827181       28.42862582178141
H           21.51793455526707        1.22542410731868       27.35094067373798
H           24.38541518208323        0.16798734675243       27.49070024603289
H           23.69426466377865        1.12289044407018       26.16771509626656
H           21.52439503880907       -5.07265092684864       19.30358364299013
H           20.75419278021150       -5.70314257504470       21.55798764374215
H           22.33750082894068       -2.11546141510932       23.22733329539569
*
