! SP DFT wB97X-D3BJ def2-TZVP RIJCOSX LooseSCF
! D3BJ
! CPCM(water)
%maxcore 4000
%pal
  NProcs 8
  End
* xyz 0 1
C           -6.97078722174541       -4.90048297892952        3.31460405654895
N           -4.94928057944482       -6.86634073757308        3.46269926203375
O           -6.33572255633071       -5.75652143954708        1.09882360110643
C           -5.89209851028715       -5.01973289061271        2.23698456932109
N           -3.10966866779720       -4.08612438090142        0.44854992691016
O           -1.97041787587014        0.48792159485403        3.71680538043290
C           -7.28329449386485       -5.08155643585662        0.30114001035737
N           -0.24191627408764        3.45930075814126        2.83291424515801
O           -0.53634166570618        1.12698517132193       -4.61958347251171
C           -4.68627725567924       -5.75526599120647        2.78886150822566
N            0.89816557333357        4.14244996045240        3.26859486490596
O            4.36086520106000        2.78721196195579       -2.05366050800188
C           -3.95607834611119       -7.55675724122339        3.99206086548062
N            3.13949405426854        4.13215454184721        0.37467574242999
O            2.38065342433795        5.96024688791555       -0.70812815792284
C           -2.62994259663719       -7.16049656522276        3.90939010302798
N            4.32696663093912        4.96126698692101       -2.59999417029247
O            0.84609823066182        2.97073035737721       -1.43266463718092
C           -2.34584479474981       -6.00484681633352        3.20689531377742
N            1.54132598490493        1.53817712593645       -5.44423821060648
O            3.00765713111607        4.82214086987528        2.91529030447276
C           -3.37990359851794       -5.28297240738987        2.60837309178591
N            2.74270862318550       -3.48654672278848       -4.18570814409912
O           -2.79621457402340        2.35222983907972        2.78280209108430
C           -3.00831674112794       -4.09839312629092        1.82392495017089
N           -0.54985441640474        0.71994513422986       -0.52654249437374
C           -3.52318063075780       -5.19467111787559       -0.37590975199838
C           -2.35425907624918       -6.13425189613150       -0.66790749101675
C           -2.38383205125261       -2.95307922816529        2.26440238248737
C           -2.12683713753988       -2.51822230927101        3.67046589131010
C           -3.18835770868328       -1.55303912263594        4.25186249174332
C           -2.86669332347038       -1.30106312617854        5.72746326941744
C           -4.58166383128674       -2.16747424083775        4.13075730622328
C           -3.20509588183829       -0.21542493799205        3.50171279202688
C           -1.90167420716550        1.74559102244272        3.32973464172777
C           -0.57813873412389        2.36747910339401        3.74090380005070
C            1.98899239099747        4.27859099413047        2.49813774523700
C            1.89505394466464        3.81449170972213        1.04118891765146
C            3.27728388099078        5.15943884128807       -0.46539042727344
C            4.63255841431127        5.23123670911799       -1.18633814801583
C            5.34829400494190        6.55312278607930       -0.89507660546515
C            6.73164250035448        6.58253937121716       -1.54362462684450
C            5.48506976141713        6.70171720657701        0.62138663626486
C            4.12172797111693        3.66972446720882       -2.88291147852393
C            3.53577464280578        3.23291616356770       -4.24450618428644
C            2.05424331860655        3.62103997758437       -4.30761806658703
C            1.34310840132695        2.96817995256356       -5.49660143552630
C            0.61476823565477        0.75383974738255       -4.86391259434109
C            1.03067907730122       -0.58049490415150       -4.52142715223999
C            1.22609842298954       -1.67856422688660       -4.06576961618759
C            1.51214518547996       -3.01035010493790       -3.53987371806127
C            3.05882145535892       -4.88269742988510       -3.96651145599807
C            3.90226071190388       -2.65796494506667       -3.91830040787813
C            1.59939493241477       -2.89627798463028       -2.00256544064233
C            0.31522561669751       -3.89695349130930       -3.91520361534167
C            2.92932855363109        1.16728316115494       -5.58272502510924
C            3.73333002601643        1.72164984065561       -4.40725678051122
C            3.94323676725125        6.09077188140364       -3.42169904942353
C            1.56382594332124        2.33398678166459        0.83828930522602
C            1.51551737679760        1.98268111383557       -0.65997743240604
C            0.85644194153176        0.61348479689005       -0.86450936767153
C           -1.20923867737815        1.66917636548172       -1.40592130998260
C           -0.55103462488100        3.02727003005558       -1.19204171468970
C            0.85383150692544        4.68052911409168        4.62137903380715
C            0.56657352442688        3.55686168894457        5.61351527510601
C           -0.71693911596084        2.83903940011991        5.20241069220255
C           -2.05000389879946       -2.20726263883144        1.09719009879610
C           -2.52151106447594       -2.94431695399308       -0.01648339680323
C           -2.35526679095926       -2.46678419755220       -1.31283895541057
C           -1.71225734674271       -1.25979144076500       -1.48582117831011
C           -1.21443699352443       -0.53522634877195       -0.39089585906546
C           -1.36677885432355       -1.01082920294284        0.89385344404722
F            4.22527204593308        3.85821192203884       -5.29775977110782
H           -6.54226445162411       -4.45940458520157        4.20907600895450
H           -7.79030150474332       -4.27330088349594        2.97669165316740
H           -7.34095467210369       -5.89332881348576        3.55166739406218
H           -5.58003366895959       -4.01750664459717        1.90177119493448
H           -7.45236363074875       -5.71885246845015       -0.56417917486744
H           -8.22950885442747       -4.93252302472226        0.82986869598898
H           -6.89476551501967       -4.10838329880602       -0.02401246930921
H           -4.24478664298092       -8.46061993410852        4.51099603752550
H           -1.84904608030091       -7.74239481582239        4.37122848437508
H           -1.32924708207682       -5.65618813857441        3.09774109946584
H           -4.32246165161600       -5.74077439667872        0.12935591002605
H           -3.91935530718116       -4.79051555058965       -1.31012699290736
H           -1.54088708341785       -5.58601101389996       -1.13833501228103
H           -1.98892253119409       -6.57815605877941        0.25522519487858
H           -2.67785436066091       -6.92894833117451       -1.33266608816514
H           -2.09135858650727       -3.39614579358230        4.31786641779352
H           -1.15817390378261       -2.01796326370116        3.70995051352282
H           -1.84804842892070       -0.94031008877460        5.83753055572687
H           -3.54492539646946       -0.55803140675607        6.14027932036177
H           -2.97598859385697       -2.22004059764440        6.29627165860584
H           -4.58033638881567       -3.16837938006397        4.55340211696228
H           -5.31564402440012       -1.56533479706069        4.65944450199201
H           -4.87871435920356       -2.23260849350704        3.08788629452318
H           -4.02450639640948        0.41711717116716        3.85908943194636
H           -3.33596939431899       -0.36531530956954        2.42662432091058
H            0.21180584391639        1.61317325742261        3.67443820497758
H           -1.03780231213250        4.09356859781246        2.75340268694212
H            1.13122397041427        4.43639375630918        0.55935423007184
H            3.91994140463173        3.51748444673280        0.54891707587410
H            5.26877356106733        4.40733737014941       -0.84984631528017
H            4.73339377232989        7.37888188535436       -1.25996837789258
H            7.15878951270937        7.57860048362722       -1.46487078821077
H            7.39298552960766        5.88441695472975       -1.03464764158027
H            6.69292084239024        6.30185451124735       -2.59246163618527
H            6.05913077717013        5.87662612721107        1.03646613425841
H            5.99505855065075        7.63097762492237        0.85743113544617
H            4.51057857267530        6.70971320060758        1.10495080486317
H            1.58787823279838        3.29401633112852       -3.37562018329185
H            1.94554493650737        4.70126734557678       -4.37359018133527
H            1.74835558779174        3.34399012005442       -6.43928297031371
H            0.27259167445801        3.17252520620153       -5.44685812067831
H            2.24310096734349       -5.51197251669620       -4.30922017643551
H            3.94063657929650       -5.11901473825614       -4.55996764540427
H            3.28297419609046       -5.11872861607660       -2.91540572146782
H            4.33951905429189       -2.83452155478881       -2.92455641984714
H            4.66094806438166       -2.87944989990360       -4.66845728749724
H            3.63265643006069       -1.60702051986184       -3.99697308161660
H            2.36420082165228       -2.18041224411955       -1.71081106209864
H            0.64469577674764       -2.55994263070566       -1.60462787850322
H            1.83571834993008       -3.86630227280229       -1.57339509876246
H           -0.60362101316777       -3.37686253036250       -3.65620780276840
H            0.31731558185776       -4.09308944331702       -4.98374992069728
H            0.34573924713615       -4.83512310452407       -3.36942083677480
H            3.01704301397401        0.08121253255404       -5.62461526592303
H            3.30025943924775        1.59438785331215       -6.51824177603775
H            4.79620796885850        1.52197770696297       -4.54649980080444
H            3.41519952768769        1.24487140281291       -3.47981445845353
H            4.73403806028038        6.83650050225876       -3.39848853251507
H            3.80015775474730        5.79222701277855       -4.45217654946543
H            3.02636253558876        6.53065540121595       -3.02259002098315
H            2.32500006464344        1.71377547762546        1.31072228576695
H            0.59218629496166        2.11615973084423        1.27431753598590
H            2.53058604316183        1.97200222986472       -1.07195394209179
H            1.32351545395356       -0.12317364149164       -0.20971374271387
H            0.99804286900202        0.29694158483557       -1.91383724661814
H           -1.13259785350519        1.39329923077736       -2.47001397083835
H           -2.26355339497512        1.72718899032375       -1.12904951856885
H           -0.74963948637777        3.36965557219765       -0.16969079061159
H           -0.93383624774399        3.76089193931501       -1.90317205114917
H            1.81547335619230        5.15502675631029        4.81391163350520
H            0.06192566813882        5.43611056153036        4.66365096560524
H            0.46473253259188        3.97220090924789        6.61484878775714
H            1.40020139020126        2.85348550628495        5.61095001560939
H           -1.56705929936993        3.52208294162096        5.27510446800808
H           -0.90509620572796        1.98080116616317        5.84590112413817
H           -2.71598531726884       -3.01754362689323       -2.16835503854577
H           -1.57295573363228       -0.86592060254520       -2.48318021936325
H           -0.95311972867704       -0.44912212352400        1.71517215543540
*
