! SP DFT wB97X-D3BJ def2-TZVP RIJCOSX LooseSCF
! D3BJ
! CPCM(water)
%maxcore 4000
%pal
  NProcs 8
  End
* xyz 0 1
C           -7.12895865340362       -4.67922218603840        3.18837357976646
N           -5.22638553379528       -6.72443747015388        3.47776984100452
O           -6.40184440177886       -5.53887593001511        1.00157842419045
C           -5.99330562927888       -4.84401103215517        2.17882182567826
N           -3.16490885741564       -4.10252304295291        0.45721560957126
O           -1.72975394259309        0.25952948483114        3.91206399188755
C           -7.27042575866279       -4.81110146029801        0.16179425075374
N            0.12047184419988        3.20704389073351        3.15470728214845
O           -0.63597502921416        0.55407116502636       -4.41336941484450
C           -4.86288303106763       -5.65693613771954        2.78128208053216
N            1.36003113264744        3.75307191550924        3.50225209735306
O            4.07907817419413        2.98203996097692       -2.27475401779846
C           -4.29960587866690       -7.48255631977019        4.03540844786077
N            3.03364080341425        4.18202244268946        0.28164883122288
O            2.00513047086483        6.01574027627318       -0.54326515902645
C           -2.94293390289062       -7.21035982158731        3.94731085951859
N            3.69921499679454        5.13254204398914       -2.78622334007409
O            0.67355943549878        3.04180854784464       -1.31046281139108
C           -2.55380899325705       -6.10010075943313        3.22150129316870
N            1.25598432826489        1.29105384812270       -5.43505551614413
O            3.41603810803518        4.41938658693167        2.88929491903503
C           -3.51862187056283       -5.30079489171086        2.60790973271494
N            3.41541793080384       -3.02889494986916       -3.08950729368622
O           -2.47587254847389        2.27445669024526        3.26987739289810
C           -3.06432643243378       -4.14089590830996        1.82999909843463
N           -0.60298184828348        0.71076035424163       -0.44582888901100
C           -3.58652844784217       -5.18532724171934       -0.39707022382037
C           -2.40200150780555       -6.06191964284411       -0.80051045607281
C           -2.41440802977802       -3.01928880343710        2.29455423516463
C           -2.08430767472945       -2.67405769928455        3.71185077969398
C           -3.06463629965036       -1.70878331837877        4.41798644289112
C           -2.65616965119424       -1.59177507379283        5.88900319864173
C           -4.49469958090566       -2.23949365863386        4.32657453802007
C           -3.03766488689321       -0.31675200772966        3.77532196040991
C           -1.58494942068385        1.54094840808724        3.63818570728076
C           -0.16436531475150        1.99852648052172        3.92127907406758
C            2.31100352920151        3.98321400253794        2.58298864741393
C            1.94272140170406        3.73048733471087        1.11768693229800
C            2.96751674797411        5.25907662007189       -0.50485468136264
C            4.18015651358198        5.44797901445108       -1.43328146592319
C            4.81820464333536        6.82979729605143       -1.26513143040724
C            6.01939968287081        6.99169253954456       -2.19530399621284
C            5.26635679150094        6.97757907800703        0.19010385329967
C            3.64000180663952        3.82362530996656       -3.06194374610409
C            3.01669463788018        3.31032497512184       -4.38035353431396
C            1.49145409503275        3.43685896499294       -4.32162231821455
C            0.81521287470523        2.66637121185205       -5.45737393562350
C            0.52668717281196        0.36257133880338       -4.78604768613042
C            1.16741058185874       -0.90320496680528       -4.54819780480382
C            1.52138037780682       -1.99970597662216       -4.19161976539784
C            2.11075556473929       -3.25686936900512       -3.73352545083216
C            3.36126785285491       -2.11800982212425       -1.96193667626132
C            4.47498409353523       -2.63180206020863       -3.99963442607706
C            1.14321785345732       -3.90644017838786       -2.72802411509191
C            2.26527886827523       -4.20185390121149       -4.93521822156274
C            2.66966915547259        1.16030402620776       -5.69642641623816
C            3.46721532366177        1.86011478716386       -4.59605411539697
C            2.99712502127912        6.17683792776892       -3.50158819428425
C            1.62652192779978        2.25954103248941        0.82366025921936
C            1.42592004346590        2.01263504286529       -0.68122889795385
C            0.76871753336114        0.64539210063318       -0.90637939643860
C           -1.34077396977512        1.69178027832512       -1.22444704912737
C           -0.69899720158749        3.04667884712725       -0.94828748016785
C            1.58440026995336        4.03769392624762        4.91293139902560
C            1.36329867458150        2.77149877922685        5.73609946773925
C           -0.02842343536720        2.21744296455068        5.44113523918646
C           -2.07706932479611       -2.25146182226998        1.14160623959377
C           -2.55543937955043       -2.96389837777293        0.01362479987901
C           -2.37048263815074       -2.48029183437289       -1.27813329691193
C           -1.72371882551214       -1.27470550510221       -1.43632796220383
C           -1.24603287069223       -0.56069455935836       -0.32719845915411
C           -1.39898743536936       -1.04982040003719        0.95222284084724
F            3.49459744412495        4.06123393668065       -5.46951567269724
H           -6.74152238861622       -4.23331394081483        4.09852250819080
H           -7.90911554054594       -4.03678780188953        2.78998002681098
H           -7.54134217444115       -5.65721266407781        3.41736737861290
H           -5.60716778381217       -3.85509900921401        1.88105653169119
H           -7.36810668272228       -5.40035208852101       -0.74736302926669
H           -8.25650099450185       -4.67821860688059        0.61362720075132
H           -6.84707076683322       -3.82843523461377       -0.07875475163038
H           -4.66940095491335       -8.34097056218853        4.57924341810339
H           -2.21806131731481       -7.84933874488058        4.42508080777023
H           -1.50919749735442       -5.84755712507388        3.10870383707104
H           -4.33593652563215       -5.78108571277838        0.12666045703572
H           -4.05139204996047       -4.75193319785042       -1.28596255958055
H           -2.73495453294835       -6.84462757689895       -1.47492846257273
H           -1.64298440037986       -5.46286673064668       -1.29840687923057
H           -1.95925244865861       -6.52305809533877        0.07912368925415
H           -2.05878888724544       -3.59486659194134        4.29794886211894
H           -1.09183620823710       -2.22169412538688        3.73542056746083
H           -2.70906338930555       -2.56486669041088        6.37005470334035
H           -1.63993019344347       -1.21728343577597        5.97198923018725
H           -3.32178772983892       -0.91110954402597        6.41483210327557
H           -4.53565142935239       -3.25884795482687        4.70113269703876
H           -5.17131906756303       -1.62340598477757        4.91379225690532
H           -4.83504281540125       -2.23602449048070        3.29465725269813
H           -3.75864914948160        0.34802711618904        4.26109464131173
H           -3.28479699588580       -0.36903357868728        2.71088838497144
H            0.53479573870723        1.21868934953150        3.60411442688889
H           -0.63071394625172        3.88302287396959        3.29648386120395
H            1.08340480719457        4.36173304456058        0.86830380241280
H            3.85945420573179        3.60305841837095        0.26602611766793
H            4.93465985406663        4.69071175599710       -1.19924780265933
H            4.06728742553886        7.59929142874919       -1.46470135786995
H            6.42856190781930        7.99343385783817       -2.10143800876348
H            6.79407468603348        6.27712735519047       -1.92479993357687
H            5.75378531743631        6.82101095688400       -3.23463027489414
H            5.68926555663403        7.96491161010368        0.34864576516203
H            4.42740300655143        6.84719577621381        0.87049933853654
H            6.02020374951620        6.23350110348596        0.43565221752520
H            1.15994086148506        3.04614807322223       -3.35883981184448
H            1.19758452151206        4.48190815145656       -4.37387908459718
H            1.08091340573702        3.10119810830326       -6.42414647543205
H           -0.26830303182665        2.68624228849452       -5.33004176354667
H            3.12303399597414       -1.08177275763991       -2.25279056958677
H            2.62092164531413       -2.45346591197531       -1.24109690430170
H            4.33559624056915       -2.11990483848001       -1.47527477044083
H            4.67740236677596       -3.42696373692220       -4.71096536413744
H            4.24744393904767       -1.70320216757050       -4.54492395566351
H            5.37788265979700       -2.46796968079069       -3.41426082442293
H            0.76920915146730       -3.18701242686057       -2.00249811130342
H            0.28593979740132       -4.31176886948076       -3.25876004507832
H            1.65769770933544       -4.70946211033201       -2.20975418400307
H            1.28309309463151       -4.50655434611384       -5.28575645341642
H            2.77888904531161       -3.71835209892881       -5.76109859779750
H            2.82059913158813       -5.08233186967418       -4.62495155617986
H            2.93607163059401        0.10426971124470       -5.73741771420148
H            2.87997752921600        1.62461060327493       -6.66326877586314
H            4.52993510101374        1.86077081570553       -4.83942562015450
H            3.33524964273506        1.33147303749899       -3.65098626379127
H            2.04287952858977        6.38007874447163       -3.00654853394854
H            3.59219834285086        7.08641531715205       -3.48592456776388
H            2.83787354988175        5.89991420751015       -4.53663252787408
H            2.45001003758701        1.63124646991796        1.16303546133797
H            0.71334550734922        1.97913060843950        1.34272582674867
H            2.39406476902725        2.04642153717095       -1.19286201228817
H            1.29969201445670       -0.11697352007222       -0.33492437527369
H            0.82690735966368        0.38137760767404       -1.97899678325968
H           -1.31079298542941        1.47935112974449       -2.30690204393254
H           -2.38052358484342        1.69802719903982       -0.89206933917729
H           -0.81476359643504        3.28769870645157        0.11479920322253
H           -1.15301030720424        3.83488912348741       -1.55208310235863
H            2.60467788214278        4.40836034900861        5.00652642100436
H            0.88463865463902        4.82008675133365        5.22486561394859
H            1.46101782367904        3.00446644866986        6.79514783619011
H            2.11901255046129        2.03163661574601        5.47047321404963
H           -0.79083554113306        2.92910423000164        5.76773848418031
H           -0.18944097839762        1.27360280186680        5.95965304464206
H           -2.72178472981973       -3.02576191002218       -2.14047639419191
H           -1.57130511648830       -0.87359672534598       -2.42836191483925
H           -0.98973950419842       -0.49192812803574        1.77736245574663
*
