! SP DFT wB97X-D3BJ def2-TZVP RIJCOSX LooseSCF
! D3BJ
! CPCM(water)
%maxcore 4000
%pal
  NProcs 8
  End
* xyz 0 1
C           -7.00109282537651       -4.84768779116180        2.52770464466985
N           -5.05591259027602       -6.74970062857145        3.32947157701279
O           -5.94441539325981       -6.01125854819414        0.63267450350171
C           -5.73385201872007       -5.10148968718189        1.71157633679206
N           -2.83469050928764       -4.15476915922624        0.39814792412217
O           -2.07331894663170        0.41646210510962        3.78525088342430
C           -6.72700460160087       -5.50488567871950       -0.42558494313309
N           -0.27337763995904        3.39960812219319        3.07466141977659
O           -0.41812989336645        1.15058782084477       -4.74266781871896
C           -4.66026221297494       -5.73349390833735        2.57655492502627
N            0.90361466631713        4.01109621991473        3.52270094909835
O            4.30625468966094        2.92486308244925       -1.78556962246477
C           -4.18057032565894       -7.36213589501946        4.10564131670754
N            3.06552549126537        4.24214396688533        0.57774557388796
O            2.35742221316464        6.12832453166176       -0.44406698649682
C           -2.84707996692890       -6.99061617437249        4.18505200502507
N            4.33243018191697        5.09721432172615       -2.33621710589282
O            0.58295554382580        3.23105036503914       -1.25382940714779
C           -2.42464106313064       -5.93164261691455        3.40364490236319
N            1.71318556769493        1.65667578055734       -5.35104082919222
O            2.99621887342340        4.72175737031546        3.15206490279546
C           -3.33388348621949       -5.27970835636156        2.56979441638461
N            2.64257304739364       -3.33706085800491       -3.42958449989040
O           -2.85649254477665        2.37200559037979        3.01420613515169
C           -2.86093926999865       -4.14062239674238        1.77702021903360
N           -0.57365116124476        0.81890036253617       -0.43647680952868
C           -3.03574049709685       -5.31340770830323       -0.43695151557150
C           -1.71779112181968       -6.04134471169659       -0.69762228365191
C           -2.35403087896293       -2.95169309233566        2.25270240221200
C           -2.20627312972719       -2.52114470506720        3.67703182152481
C           -3.33502673022709       -1.61425395170933        4.22143512873037
C           -3.12410405796492       -1.42496148475246        5.72618956738167
C           -4.69880698284932       -2.25678639622490        3.97280784248385
C           -3.32438155397083       -0.24177474002040        3.53568726865062
C           -1.96832905846104        1.69631160448666        3.48646755496420
C           -0.60558928409620        2.23436409236204        3.88987958267959
C            1.95932598858699        4.22508344401357        2.72194188877299
C            1.82035268949629        3.89959608077347        1.23097236637307
C            3.23157729790970        5.29844754432456       -0.21992105374506
C            4.60371840940118        5.36041773668525       -0.91433245843300
C            5.33524148149138        6.66845422038878       -0.60197608689704
C            6.74746209655197        6.65481245230554       -1.18465228418705
C            5.40669182704468        6.82809034576701        0.91774811597598
C            4.12318771475446        3.80903569802646       -2.62902636519677
C            3.59800472087470        3.37139850896398       -4.01121603601884
C            2.10978660820954        3.72464229920878       -4.12529971610163
C            1.47674900604079        3.08063628075009       -5.36112602586642
C            0.74874173988405        0.80730596769438       -4.95208997616497
C            1.14175877609997       -0.57283085846004       -4.83800317174291
C            1.34969941830397       -1.74166194449183       -4.63589760433630
C            1.61829912071022       -3.16587575165855       -4.47247175611583
C            2.91463209372927       -4.71777201112500       -3.08131110021562
C            2.41660894839902       -2.55315737802505       -2.23352390219602
C            0.27818979292056       -3.86392493330817       -4.16810729794725
C            2.17369462349075       -3.64835607200969       -5.82486425348149
C            3.11591584701322        1.32030988976060       -5.41881069333671
C            3.83396200494504        1.86745112033102       -4.18531793303618
C            3.99752079445739        6.23379576852845       -3.16711259871803
C            1.46890497904053        2.44496443450755        0.91110976081087
C            1.36492001358819        2.23217513227899       -0.60895905867413
C            0.79111750853473        0.84571842347969       -0.91553337246943
C           -1.37790750604006        1.78331293751194       -1.16805428594988
C           -0.79307201732377        3.17014352204122       -0.90890444396082
C            0.92978959088625        4.41324185789951        4.92276816013186
C            0.66380892167517        3.20103039122264        5.81048695709027
C           -0.65746458836556        2.55773201107067        5.39684094317199
C           -1.97512844455696       -2.19545569535413        1.10636026345077
C           -2.28815064866835       -2.97895374083365       -0.03237360617083
C           -2.04321652030617       -2.51016147994793       -1.31933413027704
C           -1.47946596691080       -1.26033653889444       -1.46262082243071
C           -1.14873869414530       -0.48525144832540       -0.34192195654990
C           -1.37936102901989       -0.94938270440915        0.93489514334626
F            4.30416772638224        4.02293635601860       -5.03703372622680
H           -6.76554625469680       -4.20398349593902        3.36901380658853
H           -7.75783530462591       -4.36156220023289        1.91869968419066
H           -7.38071743900064       -5.79538087899918        2.89645492240102
H           -5.36055607420833       -4.14905470535204        1.29987482048453
H           -7.76624134100421       -5.35420601346516       -0.12708871739488
H           -6.31566243283239       -4.55925315559628       -0.79594735548282
H           -6.68469875848999       -6.25586365590704       -1.21049926546583
H           -4.57227850871228       -8.18336529854651        4.68983828546666
H           -2.16583911567518       -7.51528267486249        4.83479983922217
H           -1.39406085833195       -5.60846740035510        3.41864908114410
H           -3.74242148629952       -5.98629286646187        0.05195925077064
H           -3.47255577522619       -4.98241167402849       -1.38268697327490
H           -1.00971938829136       -5.37786509560807       -1.18848662471782
H           -1.28407536598271       -6.38026337033216        0.24024350785284
H           -1.89318022396740       -6.90347347337506       -1.33353958355691
H           -2.16885053183324       -3.40763699176458        4.31150601774000
H           -1.26359459708039       -1.98181871610631        3.77975233549682
H           -2.14806916441505       -0.98917788411998        5.91987900682340
H           -3.88644970159066       -0.76714508769130        6.13603738515094
H           -3.18612766565685       -2.38188884167862        6.23699639825595
H           -4.88822155867753       -2.34969416014221        2.90707458058928
H           -4.72404743395716       -3.24905389641583        4.41614148174374
H           -5.49109816509558       -1.65741374207818        4.41396390982679
H           -4.13112209891132        0.39108670339002        3.91974151557127
H           -3.45460026990004       -0.34196787720948        2.45421741961458
H            0.15161709851643        1.46512103094716        3.71015885788200
H           -1.05272457435679        4.05921361660977        3.09865270085627
H            1.06042775915126        4.57126482182960        0.81358338681313
H            3.83321403963262        3.60051842995818        0.71157754871743
H            5.22064113474948        4.52740361396379       -0.56385431869593
H            4.76211141918056        7.50773855900655       -1.00232593638330
H            7.33769330841368        5.87841407872471       -0.70375428151868
H            6.74374473783536        6.46123797197515       -2.25327495285371
H            7.23014111868067        7.61184352993863       -1.00728825966481
H            5.91807573266986        7.75262159156171        1.16970445648263
H            4.41100031445954        6.85491606497988        1.35522817493970
H            5.94786158061336        5.99856532467456        1.36681433159122
H            1.60425097210824        3.37471832452111       -3.22319749430594
H            1.97981664837077        4.80372002724000       -4.17857804995053
H            1.91616563873951        3.49934270097247       -6.27135728417348
H            0.39919122300239        3.25191399578133       -5.36074320321358
H            3.84352952519284       -4.74144702835691       -2.51260726531438
H            2.12381875767205       -5.16925578026234       -2.46459300106403
H            3.05148168066146       -5.31309754723267       -3.97800706406718
H            3.28623202489490       -2.66083290790109       -1.58681769377865
H            2.30924861122515       -1.50193852534827       -2.49393934372311
H            1.52428643550565       -2.86106866784304       -1.66480641663098
H           -0.45540527397528       -3.59186560134348       -4.92271228880840
H            0.40318396949049       -4.94347685777401       -4.17337531882976
H           -0.09631751208235       -3.54788915982059       -3.19650862145712
H            3.15206318600379       -3.20793002330171       -5.99423924352005
H            2.26185137057869       -4.73019986144680       -5.84761189559585
H            1.50280720088019       -3.34224860117958       -6.62352757661552
H            3.23302743481589        0.23762100760621       -5.46835966263353
H            3.53292771306571        1.77324493539853       -6.32280218402780
H            4.90631209874206        1.68759058762376       -4.26269194959228
H            3.46908398123744        1.36588595437397       -3.28846715030428
H            3.82518776636472        5.93287035348262       -4.19218533957015
H            3.10610597250923        6.72078489353996       -2.76638303558784
H            4.82411209033137        6.93966355836074       -3.16188729513333
H            2.24781620138026        1.78522257258118        1.29208229364724
H            0.51712549484255        2.18402453640358        1.36606333583125
H            2.35738717474160        2.33087951052086       -1.05928818433847
H            1.36898325025008        0.07710804366529       -0.40000567990165
H            0.85224411508005        0.66145061416431       -2.00575099048400
H           -1.38695132947081        1.58393495597595       -2.25478888494337
H           -2.40125530005394        1.74341301244132       -0.78922036382407
H           -0.93290363287608        3.42977558969580        0.14680555526477
H           -1.27958735132164        3.91978874215618       -1.53458125629775
H            1.90922542238600        4.84938168275815        5.11697172858387
H            0.15747844974086        5.17453967555882        5.07733598301745
H            0.62338219484748        3.51413948040914        6.85248522653336
H            1.47714493396124        2.48381279788064        5.69325973029656
H           -1.48431523583079        3.24700866135870        5.58593613694474
H           -0.83499801627382        1.64140206278387        5.95808787836192
H           -2.29496337178626       -3.09706596531321       -2.19019227164860
H           -1.28258650327525       -0.86905747903753       -2.45163917198542
H           -1.08753902192675       -0.33882516660352        1.77219101127068
*
