! SP DFT wB97X-D3BJ def2-TZVP RIJCOSX LooseSCF
! D3BJ
! CPCM(water)
%maxcore 4000
%pal
  NProcs 8
  End
* xyz 0 1
C           -7.09468583416765       -4.69705702413702        2.76751894217773
N           -5.19180961716893       -6.69969036975336        3.30968886202234
O           -6.18051520400446       -5.64275040430329        0.69210165578745
C           -5.87544495608836       -4.89229018289011        1.86604845531468
N           -3.02595017371361       -4.12352520926956        0.34580411430558
O           -1.87325631148612        0.31348894899110        3.83101200267202
C           -6.93173175736593       -4.94011189641548       -0.27319758416480
N           -0.12200280751623        3.33700081451936        3.09216103987198
O           -0.43247307558074        0.81971639084909       -4.59691041241329
C           -4.78808510014447       -5.66159015382040        2.59206129705410
N            1.09210789847612        3.91336404615124        3.47537494187959
O            4.31273167595606        2.94190617075748       -1.91016666333465
C           -4.30093251026115       -7.41788466756252        3.97070093078782
N            3.00005207865316        4.23009162468707        0.37748370778422
O            2.16958137779305        6.10879079245700       -0.56438317816515
C           -2.94457690781997       -7.13229093206214        3.96869077680893
N            4.11425901904445        5.08107781052817       -2.54723481801165
O            0.54724727802597        3.18272225104004       -1.36707380070631
C           -2.51345085933625       -6.05109215527634        3.22213970896778
N            1.65222834277338        1.34508137753195       -5.33280678235066
O            3.18079442866108        4.54891887739986        2.97009639588339
C           -3.43746919411723       -5.29380003096193        2.50267093836107
N            2.73276603479213       -3.37594633913973       -2.87417072846452
O           -2.67249318539315        2.27143592848838        3.08481462978548
C           -2.95816967084041       -4.14800080160437        1.72231972598779
N           -0.68021475422133        0.81170707962273       -0.51077859171226
C           -3.30502672941351       -5.26151384698256       -0.49527146923466
C           -2.03295015170316       -6.06073074264628       -0.77415933940868
C           -2.37279542020298       -2.99482588697207        2.19496962390205
C           -2.09021780065515       -2.62903800070162        3.61653916619538
C           -3.13099681570672       -1.71218018383426        4.29967557532387
C           -2.76299254694799       -1.58356614450223        5.78049993453855
C           -4.53331319194132       -2.30523202777282        4.17070650221283
C           -3.14968904744416       -0.31874804100370        3.66020239270708
C           -1.76921826176089        1.58992235199832        3.51567078544221
C           -0.37989132470604        2.11067582603014        3.84211050801448
C            2.09329944029835        4.11655407727704        2.60598858794593
C            1.81799098442046        3.85376503397995        1.12010712269641
C            3.08611446072193        5.31073940254622       -0.40041114510091
C            4.42098899432431        5.44077014752549       -1.15395361931117
C            5.05853937976282        6.81739027135356       -0.94575797374411
C            6.44884431513573        6.87082108475436       -1.57693582745048
C            5.16330506075551        7.08396930560513        0.55703378340178
C            4.00716421154043        3.76843356540332       -2.77510325608360
C            3.46538530869806        3.22835965989447       -4.11542970343804
C            1.96020867951319        3.49215408616425       -4.22471375811843
C            1.35860113272910        2.75702977302126       -5.42499438034987
C            0.73670236087757        0.49490663039713       -4.82659051344248
C            1.18006258942075       -0.85218007847048       -4.58573365580654
C            1.33683026196936       -2.01465625627749       -4.30522535141154
C            1.68272354910391       -3.37903871800759       -3.90786541598076
C            2.39898101618927       -2.58206439667269       -1.70476194808512
C            4.05037525744425       -2.99665560942898       -3.35365039701511
C            0.42613982950033       -4.07083014860364       -3.35246362990820
C            2.14377970691944       -4.15349849983584       -5.15279634641965
C            3.06802145622539        1.06757996412814       -5.39013064918306
C            3.77437015927698        1.72903061235661       -4.20540652670067
C            3.66717780701374        6.14849588571569       -3.41784297959692
C            1.44264472713522        2.40304511927960        0.80255985629731
C            1.30772636662152        2.17347392271403       -0.71318171661883
C            0.69309929810525        0.79524747216810       -0.98038915497248
C           -1.44960064208922        1.78427292084731       -1.27031052800276
C           -0.83096543357982        3.15833339878415       -1.01844789399972
C            1.25123774396500        4.21027318695278        4.89308871257482
C            1.05760986303815        2.93579571213559        5.71063286264182
C           -0.29649323314215        2.31967119188482        5.36680427936473
C           -2.04788707717658       -2.21667469312270        1.04581057231986
C           -2.46746972824444       -2.95479147394030       -0.08891614272118
C           -2.29752071039574       -2.45478745299134       -1.37643905749041
C           -1.71119826712182       -1.21601284004814       -1.52394500357454
C           -1.27882182299483       -0.48264100767938       -0.40869629459382
C           -1.42750553791622       -0.98265474063693        0.86679949710272
F            4.12151087943315        3.85699257575014       -5.18955722401791
H           -7.52544588820510       -5.66733071239697        2.99434439660194
H           -6.78929284120647       -4.21711410120957        3.69211420358323
H           -7.83645345928925       -4.07243124667055        2.27752366671626
H           -5.47741034903211       -3.91120668230398        1.55771262256473
H           -6.45236809482065       -3.98480652351942       -0.51944077247425
H           -6.95485684498962       -5.57704011212617       -1.15478549563604
H           -7.95453568744335       -4.75304248426432        0.06499550030031
H           -4.70392136878058       -8.25260791392874        4.52621380150136
H           -2.25164761378451       -7.73903451520984        4.52812889893086
H           -1.46655246977731       -5.78871803665013        3.17550933034528
H           -4.04601826873458       -5.89299674009656       -0.00249023869513
H           -3.73111877204910       -4.89765380290916       -1.43271737250277
H           -1.28528597923911       -5.42446334367745       -1.24276107896375
H           -1.62397494788056       -6.45453609971866        0.15358439699639
H           -2.25656273554831       -6.89090740890927       -1.43812732858973
H           -2.02784224923421       -3.54365818413403        4.20807033378091
H           -1.12271872315670       -2.12567785065006        3.65664472227996
H           -2.81581820591417       -2.55515365057790        6.26412556084798
H           -1.75400239214926       -1.19544978081016        5.88792479234007
H           -3.45037858828039       -0.90987458653316        6.28580986627255
H           -4.84650088393641       -2.31939138714467        3.13050757736237
H           -4.54149772806932       -3.32478561513608        4.54786048306652
H           -5.25080726047907       -1.71790652775094        4.73807816107359
H           -3.91194767359796        0.31270847666726        4.12931852215582
H           -3.36938726322157       -0.37791367265460        2.58988945323221
H            0.36256500999597        1.36588997558841        3.53737304448955
H           -0.89230984573630        3.99137235102101        3.23664113139602
H            1.02087238709096        4.53380527124449        0.79840843195709
H            3.79937222928834        3.61934180107814        0.46977100524370
H            5.11531339927324        4.67869786596452       -0.78669890313358
H            4.40982360606883        7.58416924333399       -1.37511825201760
H            6.84730722233392        7.87928006729537       -1.51435173685509
H            7.12074632165774        6.20257308749354       -1.04342667988470
H            6.43240907099103        6.56759336981970       -2.61982729073102
H            5.63491240746512        8.04747995461159        0.72818390163945
H            4.17830859902725        7.09557408019598        1.01879649219644
H            5.75512268997154        6.31398299827594        1.04665084025199
H            1.48387066617942        3.15177871748057       -3.30383943723307
H            1.75972602730288        4.55667320148469       -4.31813206759340
H            1.78902541103147        3.13813165677793       -6.35607504706170
H            0.27476015441082        2.88585336149443       -5.43869212507715
H            1.42052073774582       -2.85194847189521       -1.31737792066649
H            3.13871561902647       -2.78742790535290       -0.93219148567970
H            2.40434852997417       -1.50021984618356       -1.91201158453080
H            4.40385057716436       -3.71036721555993       -4.09187916560032
H            4.07341629725966       -1.98283780531457       -3.78253861000661
H            4.73443269342256       -3.02138130693371       -2.50728125114984
H            0.71847746373388       -5.01349119394522       -2.89906336785428
H           -0.07792445245121       -3.45260993058074       -2.61370464908827
H           -0.27515146534921       -4.26188768346670       -4.16044865793684
H            2.91647921037180       -3.61727517660222       -5.69593083251273
H            2.51844820733774       -5.12666503787855       -4.84992823285295
H            1.29920059752699       -4.29157750230556       -5.82232120658872
H            3.23071321460783       -0.01105305104626       -5.36712908147676
H            3.46024603370018        1.47030805503824       -6.32912405268724
H            4.85435109819261        1.59640236962967       -4.28576175661034
H            3.44461625834842        1.26781031269926       -3.27262055339789
H            3.45327141346779        5.78343850472626       -4.41633094848999
H            2.77085108317577        6.60542930770808       -2.98799374814739
H            4.44985081858130        6.90319482953513       -3.49343126955590
H            2.21937054184877        1.73226790760621        1.17273221679094
H            0.49335012766654        2.16080398822889        1.27388082844803
H            2.29827105414063        2.23439759801996       -1.17920418532617
H            1.24805068184841        0.02569467785826       -0.43720123904913
H            0.74949371176734        0.57583351018222       -2.06523391104082
H           -1.44684378278743        1.57359402603241       -2.35727381693240
H           -2.48167278653960        1.77682219623503       -0.90612585345630
H           -0.96102814020672        3.42410755485538        0.03853565695438
H           -1.30172657899454        3.91805591305589       -1.64653298459133
H            2.24794095335965        4.62916707156858        5.02671778176253
H            0.50188760043088        4.95804929556866        5.17312382557936
H            1.10602704438402        3.17383029531864        6.77199114226270
H            1.85575623243745        2.23093686572351        5.47480065139268
H           -1.10132228560494        2.98959937682343        5.67964465062861
H           -0.42647304633699        1.36221959837569        5.86968544569516
H           -2.62054812707870       -3.01006760438273       -2.24389015696298
H           -1.57055264291149       -0.80355508448087       -2.51365467592600
H           -1.05956087274404       -0.40845727433705        1.70029126092766
*
