! SP DFT wB97X-D3BJ def2-TZVP RIJCOSX LooseSCF
! D3BJ
! CPCM(water)
%maxcore 4000
%pal
  NProcs 8
  End
* xyz 0 1
C           -6.90119130722449       -4.73875124055218        2.87960369194574
N           -5.02093719777245       -6.83134109633023        3.07436054550781
O           -6.17870954541202       -5.51530448498063        0.66133719128341
C           -5.76370468133121       -4.87827800222965        1.86839240299099
N           -3.00008666016705       -4.04550792189626        0.22344833673199
O           -1.60021635608853        0.16926388391411        3.91868653213089
C           -6.96779471982204       -4.71023633619294       -0.18664422919901
N            0.01228492833229        3.26531346568514        3.33208088266550
O           -0.47139165749462        0.52809159511754       -4.40170878178937
C           -4.64592698157632       -5.72936324293918        2.44098331316668
N            1.20849581675518        3.90562724208676        3.66933595248021
O            4.06141345263234        3.23510100005350       -2.07715911020798
C           -4.10189096455971       -7.62006785834700        3.60159071809038
N            2.88334360574193        4.44856661000380        0.45671687856316
O            1.83004674448415        6.25901138787897       -0.39154003989824
C           -2.74406126498213       -7.34451624358029        3.54925722873312
N            3.57999397457567        5.35666996797796       -2.60927514429973
O            0.65249283801033        3.27065706680997       -1.19512148526815
C           -2.34267759178102       -6.19828531545575        2.88856475902576
N            1.41774697061744        1.38797675124970       -5.33011554169053
O            3.18254435731133        4.77876525946004        3.06178169104687
C           -3.29821883586719       -5.36778864777609        2.30379108742384
N            2.58691850023620       -3.34557648443000       -2.57517422469537
O           -2.51452913800666        2.18641308780521        3.57137068572009
C           -2.84927565432745       -4.16860398918452        1.58848211376476
N           -0.60632716301294        0.88700557410130       -0.45492277667377
C           -3.37842324623109       -5.10158436296408       -0.68270290023508
C           -2.15016736619621       -5.86015607248926       -1.18222623986762
C           -2.20643573326104       -3.06415570826546        2.10089459689554
C           -1.83460671455270       -2.78929232505548        3.52255358015390
C           -2.82189157261337       -1.90438135995603        4.31964639470549
C           -2.35745852933480       -1.84849026958927        5.77796363443485
C           -4.23252257710359       -2.48650677266553        4.25259026601905
C           -2.87474628086489       -0.48088170966569        3.75194239107546
C           -1.55671199738198        1.47998783002723        3.80311771205199
C           -0.15998712283282        2.01714894119419        4.07172095760516
C            2.12749784654693        4.23700868872639        2.74887023911220
C            1.79241416137877        3.96762913618128        1.27845372595087
C            2.80369984319419        5.51643020948989       -0.34121612072354
C            4.02605673419463        5.71538530612411       -1.25569009075418
C            4.62420503987388        7.11905614781415       -1.11984094101789
C            5.88634929788544        7.25211827794644       -1.97094265497408
C            4.96300815371833        7.36457307568103        0.35079808451018
C            3.59901206194684        4.04826775694666       -2.88438043073014
C            3.03558536638190        3.49770786396039       -4.21199333738252
C            1.50388573044522        3.53783494633348       -4.19258513476647
C            0.89804584535198        2.73524960292873       -5.34525936356997
C            0.70702037921605        0.40008738467358       -4.75842525063811
C            1.37961035831201       -0.86155918024270       -4.58548971674209
C            1.73619542904490       -1.97487910667417       -4.29436523500317
C            2.26431486304681       -3.30802409103166       -4.00885692522508
C            1.44027538871412       -3.12627185689307       -1.71677824778617
C            3.34083975444083       -4.50496751527483       -2.14322336425147
C            1.20102956098383       -4.33626660816349       -4.44926533008838
C            3.53339003725183       -3.48605431715903       -4.85628003259108
C            2.84417230882516        1.33762089878445       -5.54620548374905
C            3.56055508624775        2.06948544257184       -4.41118535477518
C            2.90810627533773        6.38955331316209       -3.36887066114747
C            1.52282584572516        2.49003753440717        0.97110386090466
C            1.39946491747363        2.25173139096372       -0.54328259975865
C            0.79537019797123        0.86871443928074       -0.81905468246401
C           -1.31970215802669        1.86342469111861       -1.25619116596506
C           -0.73483110461113        3.22814752640467       -0.90751311376612
C            1.41559109750962        4.18666507313992        5.08331750396338
C            1.33881649056680        2.88376978490223        5.87450198836429
C            0.00056675997876        2.20187933690049        5.59373461830482
C           -1.92916783519807       -2.21499455252322        0.98909333455522
C           -2.43603875941802       -2.86324292669021       -0.16509246553710
C           -2.33083734494065       -2.28461142451246       -1.42475358135757
C           -1.72434112205642       -1.05122324821041       -1.52422662340637
C           -1.20979805810466       -0.40357052126193       -0.39170691371596
C           -1.29236703328556       -0.98429061883988        0.85727107974292
F            3.50281788828018        4.27183848271213       -5.28743434085965
H           -7.32577850657854       -5.71930097459567        3.07026976123483
H           -6.51156614781718       -4.33065142145359        3.80685671684296
H           -7.67308424076937       -4.07355303978273        2.50140188948750
H           -5.36366314245996       -3.88275615169281        1.61436737797049
H           -6.47041715444091       -3.75420080565159       -0.39027893413990
H           -7.07463515165661       -5.27144872488792       -1.11123026244621
H           -7.95599385455382       -4.51888561860668        0.23808216274813
H           -4.47837089712625       -8.50766749634325        4.09266761475677
H           -2.02776600913148       -8.01027128378913        4.00340783786806
H           -1.29646300630546       -5.94314243328671        2.80342205666804
H           -4.05870688491681       -5.78260420881326       -0.16898368234301
H           -3.91092348583650       -4.65559546961743       -1.52608170486050
H           -1.63987616330543       -6.33998216409761       -0.35040862297294
H           -2.44675280737283       -6.62162295148049       -1.89793090655070
H           -1.45763406368564       -5.17343815996094       -1.66564266395760
H           -1.74256550110335       -3.73801811725784        4.05630285404180
H           -0.86187467045460       -2.29344491477019        3.53133213840324
H           -3.00969079128368       -1.20074109414772        6.35969031820930
H           -2.37869664130812       -2.84172422058954        6.21631925059141
H           -1.34307270047063       -1.46325697347574        5.83709534549175
H           -4.60842702035374       -2.45189902876421        3.23444289969254
H           -4.22239661456029       -3.52179688992996        4.58256728059073
H           -4.91059514093122       -1.92496712693450        4.88972477861785
H           -3.63406557225184        0.11632080850900        4.26803526217988
H           -3.11360239032711       -0.49236023850804        2.68431020979907
H            0.58014393155057        1.29679320587231        3.71198103679472
H           -0.78692778064251        3.87362299625292        3.52127824493586
H            0.91906071230131        4.57478408342534        1.01519545710490
H            3.71392439319769        3.87639716350031        0.43853068117275
H            4.79461547430444        4.98502900814660       -0.98633272234878
H            3.87807044718232        7.85907266488608       -1.42073596791944
H            5.70124127526785        7.01258745520367       -3.01333014142984
H            6.26488296811268        8.26926945359953       -1.91136230195989
H            6.65357407821988        6.57479537519003       -1.60263368464289
H            5.67400391347641        6.62471653321645        0.71139381828650
H            5.40007288693048        8.35145229315253        0.47005296340057
H            4.07097948388434        7.30381905411346        0.97022461038768
H            1.17300171412920        3.12804144343428       -3.23765124635285
H            1.14787677139913        4.56497693322149       -4.24705475361777
H            1.15033019300667        3.19687499092669       -6.30474365203371
H           -0.18672434638541        2.68843781412380       -5.23573789611021
H            0.78757805128119       -4.00802887753608       -1.62943431762503
H            1.79690546501559       -2.87155317361209       -0.71878075742499
H            0.84704834134322       -2.29160140121704       -2.08772088929669
H            2.82080653742407       -5.45836171302571       -2.31573645684280
H            4.30760397134139       -4.52704219987101       -2.63946840201136
H            3.51377980397404       -4.40642181267139       -1.07191142780451
H            1.51351491290570       -5.33937986685712       -4.17156343088130
H            0.24142898188902       -4.12013823973093       -3.98546797477021
H            1.07797062047552       -4.29648371006350       -5.52770930561972
H            3.86062803249820       -4.52136261530587       -4.84748873810919
H            3.32027837084293       -3.20416587014902       -5.88406178251454
H            4.32586907023004       -2.84969219161293       -4.47483461986872
H            3.17198182188036        0.29823677150054       -5.58440303236479
H            3.06001376821175        1.82298169468486       -6.50222465683407
H            4.63056290297266        2.11968733391424       -4.60665898717557
H            3.41074875278140        1.53069184438090       -3.47538940143924
H            2.03762641991757        6.73525624252398       -2.80508414113834
H            3.58354524075892        7.22758494171282       -3.52342104037321
H            2.60114055930904        6.02617181602917       -4.33995456370543
H            2.34986463714119        1.88446926727147        1.34150952255178
H            0.59836412133012        2.18074301214360        1.45214118249340
H            2.38991107362254        2.31106661459370       -1.00782681557370
H            1.31031712844798        0.11571863818126       -0.22022578105614
H            0.93292184556030        0.61352725264742       -1.88744853857705
H           -1.21784708553038        1.68422145119002       -2.33939314711104
H           -2.37600383539243        1.83196757054698       -0.98542256493595
H           -0.91450835436397        3.43291367633261        0.15352456916199
H           -1.18066693826166        4.02041794478704       -1.51117303930925
H            2.39113256028149        4.66355041873725        5.18108425836809
H            0.63785541329746        4.88232872913016        5.41771890052738
H            1.43936041032828        3.09549814098332        6.93798928556406
H            2.15762694715635        2.23004875252505        5.57062655520696
H           -0.82021334129498        2.81869542794274        5.96840305814982
H           -0.04468087023958        1.22955855600405        6.08428895581818
H           -2.71269277145982       -2.77267454811435       -2.30815512511500
H           -1.62721498477105       -0.58028178064344       -2.49221937356387
H           -0.86509477091586       -0.47260042815973        1.70442025661711
*
