! SP DFT wB97X-D3BJ def2-TZVP RIJCOSX LooseSCF
! D3BJ
! CPCM(water)
%maxcore 4000
%pal
  NProcs 8
  End
* xyz 0 1
C            9.89507779160020       15.52470236646744       19.87571492037775
N           10.92287047514763       13.27854311919314       21.23710189322373
O           11.15229895014867       14.04709971489453       18.36492383111273
C           11.24304989833247       14.91596698932237       19.49257926747696
N           14.54069278237860       14.81162210917482       19.06715929238113
O           15.74276201890742       19.30365255820692       22.52164761940689
C           10.94867327619263       14.69845914315961       17.13116622056781
N           18.60839592104874       21.43895348081021       22.30126200697884
O           19.17193862145846       18.54568826790223       14.21140198580949
C           11.79128501885518       14.07485096617732       20.63113726628465
N           19.83517039961992       21.54883088328610       22.96709736173690
O           23.34681457819581       20.52325108071576       17.20911465616496
C           11.32658961513471       12.52346731968599       22.24258451206926
N           22.17393824883233       21.61301378766173       20.16291548013841
O           21.79883350629383       23.78151112413244       19.67220449211398
C           12.62734060411403       12.53006355075778       22.72177778213791
N           23.21975478252597       22.76907169443080       17.28974972884141
O           19.76504053409170       21.19409903466392       18.20579664000123
C           13.54304876323089       13.35188413256528       22.09153731201613
N           20.86302266994821       19.88501666086071       13.49853408180406
O           22.08461763964504       21.52783758175447       22.86596653620712
C           13.13836494726755       14.13867379235719       21.01323714897516
N           23.52084783121671       15.52902413001869       12.09132950954407
O           15.98896681528611       21.29043771568838       21.51963753768691
C           14.12549428214171       15.00842145964612       20.36581107096520
N           18.13618287882365       18.98346343197742       18.72229650467709
C           14.24792724215292       13.66071765945136       18.25042265045229
C           15.33601004465518       12.59740836795083       18.37533998131171
C           14.78299205079701       16.08171760489275       20.92452158085646
C           14.64776973936887       16.60299394244705       22.32044254187517
C           13.77808528553208       17.86878485364535       22.50043839058866
C           13.55891918414920       18.09624943962060       23.99914458583302
C           12.42881176520086       17.69142693655954       21.80457563840030
C           14.45987165168061       19.10704257303049       21.90468470413111
C           16.40680632838916       20.40734333988743       22.23242698255331
C           17.76109054508374       20.42781649652209       22.92521001617175
C           20.99754976440775       21.47018892214656       22.30046736001491
C           20.88818721693732       21.37288615030432       20.77824684301899
C           22.47958324699684       22.76907288678623       19.56682245261516
C           23.72258251572099       22.71898208135086       18.66646393254113
C           24.72261162329914       23.82067593769237       19.03992396144456
C           25.88318049746242       23.88629444927511       18.05064690215691
C           25.23747618090335       23.52311921886918       20.44870501450345
C           23.05477757812821       21.59667639265606       16.67007979126985
C           22.44762573637681       21.52910214938799       15.25568662043809
C           20.92859107905449       21.38711743652641       15.40436903108335
C           20.26349252892482       21.07043037304866       14.06837485292284
C           20.27170419088563       18.68410621390452       13.66861150209533
C           20.97429103079646       17.56061288425792       13.10964661690580
C           21.38106672812047       16.52545685654530       12.64272538088220
C           22.05767144125816       15.35280434135430       12.09046622276539
C           24.06724888632480       15.81627053109877       13.40454956806601
C           24.01100906533896       16.48929476570630       11.11984883047932
C           21.69531990703915       14.11880362679224       12.93733843231799
C           21.53451614094771       15.12646436448181       10.66369789782741
C           22.26554678974788       20.05760602163422       13.20049524430412
C           23.04326041490329       20.34238264595694       14.48836664937806
C           22.72380478174368       24.04007544562285       16.80280347119872
C           20.34828422521120       20.02818323146829       20.28863569813697
C           20.30239086360094       19.99693208764260       18.75008834233073
C           19.49481233272714       18.78618658332101       18.26963436338181
C           17.56433403534264       20.15018141081035       18.07345356066326
C           18.38373241229413       21.37037644091598       18.48462961765687
C           19.78339932221927       21.81071415058200       24.39823978151024
C           18.94500902846922       20.74216085854235       25.09435047716958
C           17.56854942656251       20.66815199394235       24.43530369712813
C           15.66085838717600       16.57259361216837       19.91589491962941
C           15.48768714395878       15.75132914628846       18.77277586569968
C           16.21374774777582       15.97054615258276       17.60642745717361
C           17.09723784309598       17.02869676772040       17.57497955914020
C           17.27735209386564       17.84552970483600       18.69923870297063
C           16.58660854021266       17.60832252213268       19.86787059630259
F           22.72990335456226       22.67920224985905       14.51245315618064
H            9.52512740464013       16.16785248085249       19.08304945129822
H            9.18540837666973       14.72358065665042       20.05661849204090
H           10.00800066862305       16.11487897218056       20.77945488320519
H           11.96246889967392       15.71849986318403       19.25981296582572
H           11.06246922059201       13.92932780880222       16.36827691013088
H            9.94617030780545       15.13195563942998       17.05830967156002
H           11.69557980526964       15.48846882572516       16.97678366166693
H           10.56900998948241       11.89269762601000       22.68387695990700
H           12.91458970324367       11.90996854671307       23.55543922435022
H           14.57387534117175       13.38617946928521       22.41169698296716
H           13.28430561667281       13.24818855451976       18.55556611471249
H           14.16025642164700       13.98910016864905       17.20946028506816
H           15.40603872939337       12.24781620282528       19.40291574221748
H           15.10095737621522       11.75388625204150       17.73413831584481
H           16.30027956099213       13.00592712386284       18.08040976258832
H           14.20733258920239       15.81868146212887       22.93933569955204
H           15.64506342175459       16.82436026062926       22.70598890628852
H           13.01709947217507       19.02306788920051       24.16583725953303
H           12.98061166084784       17.28221998688717       24.42356397036095
H           14.51227619882273       18.15542443700168       24.51542725793626
H           11.78394343687141       18.54507191739838       21.99650776474902
H           12.56191871234509       17.59384785563810       20.73060311858054
H           11.94002788749217       16.79348181977703       22.17349221273319
H           13.85319520505411       20.00278203956341       22.07155981612499
H           14.60783737434462       18.99301359311166       20.82693112534595
H           18.23913222099372       19.45220981490604       22.78129224432830
H           18.11650369511470       22.33509783907943       22.29834372624070
H           20.23516953761558       22.18752407939361       20.44660697547852
H           22.79593914590875       20.82660786893856       20.07183489727491
H           24.21578137848161       21.74765591737197       18.76915250294156
H           24.20298903447961       24.78339917048907       19.06642119025075
H           25.55211374955241       24.21982620497051       17.07065975760622
H           26.63217900639952       24.58463738033607       18.41367775559422
H           26.34345053694751       22.90578249189021       17.94557738515316
H           25.80477769487475       22.59592742900784       20.46059394925258
H           25.88227253825561       24.32864407562145       20.78761330117151
H           24.40910234337580       23.42716671172115       21.14987770584690
H           20.73992410260459       20.57174313803427       16.10323243846108
H           20.50185095398056       22.29236370400028       15.83494643972981
H           20.39859440485841       21.89793046115607       13.36835884566754
H           19.19938796854523       20.88172598848266       14.21556741038579
H           23.74942737252946       15.06226411363618       14.11857366644687
H           25.15395935657133       15.78073381383716       13.33758495577034
H           23.77355045918095       16.80675867429206       13.78734783423019
H           23.54452966300745       17.48138752960487       11.22004089692889
H           25.08402429528715       16.60192403946746       11.26383355811683
H           23.84714591722586       16.11757953209695       10.11200748843790
H           22.40497494390310       13.32720256218448       12.72164296055040
H           21.71421746617087       14.34075353077066       13.99951196140935
H           20.69564554923509       13.77756357714628       12.68553097377671
H           22.05883321874520       14.28646598073189       10.21941150842249
H           20.47138734579952       14.90297029407705       10.70424491116568
H           21.66473647933907       16.00765691678484       10.04414089318463
H           22.64960443643448       19.15370341418271       12.72568799595060
H           22.36854665474506       20.89959562940859       12.51004572115425
H           24.08392158019284       20.56663309591605       14.25179273451351
H           23.01874665661867       19.47389690965935       15.14830858923002
H           23.40730794077864       24.47369933944338       16.07173294509449
H           21.74142467745389       23.92698718200977       16.34707395777403
H           22.61608654560753       24.71263169957053       17.65053267806575
H           20.99119112766132       19.22178267514661       20.63755147595858
H           19.34109505474439       19.87441228766622       20.66484476244604
H           21.31957520701441       19.94674331418555       18.34245558975009
H           19.89311830866166       17.87148862317500       18.71051035016903
H           19.56659550466020       18.70940854223279       17.16907117532817
H           17.57317533065894       20.04231724426262       16.97403786752741
H           16.53447072845820       20.27700017450383       18.41154306925333
H           18.22602368439790       21.56425639221774       19.55171102895934
H           18.08108912620703       22.25061749662343       17.91284042541256
H           20.81090300160297       21.82079605515917       24.76053153764825
H           19.33796414882271       22.79988125454876       24.55187276318464
H           18.84888369587092       20.99150640681898       26.14903149791648
H           19.44604861166206       19.77700155730471       25.00774201935192
H           17.02942980344084       21.60619658117234       24.58544793733565
H           16.97925297871505       19.85566835606443       24.85667088149229
H           16.08993637875672       15.34353774099714       16.73631709543476
H           17.65522637407028       17.23462296289353       16.67207910806060
H           16.79070489290575       18.23732785505905       20.71481300040662
*
