! SP DFT wB97X-D3BJ def2-TZVP RIJCOSX LooseSCF
! D3BJ
! CPCM(water)
%maxcore 4000
%pal
  NProcs 8
  End
* xyz 0 1
C           10.09221639510034       15.33484090534169       20.01002449189048
N           11.30340293829548       13.06752216765173       21.18574542986974
O           11.28908821009777       13.96666424729448       18.35535748220468
C           11.43188874161475       14.79561151532840       19.50897190509355
N           14.68713019657150       14.91072432773869       18.89926186510073
O           15.92012581864644       19.24239933114556       22.40738391548123
C           11.02466734508783       14.66647846344892       17.15984140492813
N           18.52017847395262       21.58268971306307       22.59011933342203
O           19.13365222074244       18.63727394299724       13.84108159327341
C           12.09059325337216       13.94047740786655       20.57414943221035
N           19.79478590619549       21.70041843744676       23.15735871411560
O           23.11511956081787       20.84769858337895       17.25135403408660
C           11.80244046972280       12.29730580096614       22.13516326009907
N           21.90721510257940       22.05331719430251       20.20946308012069
O           21.20508665173266       24.04965753474427       19.43300515066643
C           13.12246901979187       12.36790125734892       22.55387249073742
N           22.81062182084742       23.07408409656667       17.17492427702033
O           19.95274144551387       21.29785459309093       18.13824424064477
C           13.95361533350562       13.26799011516393       21.91473706962505
N           20.92925948629229       19.93282832568829       13.33451334068042
O           22.02508513373881       21.80162723607650       22.87302023006449
C           13.44974510579114       14.07109631829610       20.89127515603477
N           22.08345117106071       14.65033174491042       11.64882802756287
O           15.73733303691100       21.47974838628851       22.44346247010719
C           14.35253343332823       15.02016904688021       20.23257027555215
N           18.16122722880405       19.19951660757203       18.56905668258387
C           14.44570844590580       13.75014041860978       18.07815001757189
C           15.54441752285353       12.70640849031403       18.27622425137972
C           15.00432111209756       16.08829284218654       20.80571413333268
C           14.90637291721484       16.55046013245558       22.22383406103611
C           13.98012863250541       17.76511605832506       22.47103746569724
C           13.78577995303577       17.92891894956439       23.98111112265620
C           12.62530147966394       17.55163848771218       21.79604470644764
C           14.59224571492445       19.05453524606525       21.90222454207223
C           16.37297132196931       20.46133564306984       22.60622760560798
C           17.80180184763574       20.43004031409600       23.12583018037563
C           20.89810361932357       21.73251615174613       22.39272116489777
C           20.67567579089635       21.70351392563918       20.87969864232083
C           22.03437706231635       23.14667460945546       19.45272734497450
C           23.28173849936607       23.15999367002189       18.56028171543468
C           24.18779868089926       24.36903678989376       18.82815543900275
C           25.44107488660908       24.28907886537180       17.95974143136202
C           24.56433819990968       24.38217698371558       20.30919701927958
C           22.77515645132993       21.85671059055820       16.62647067641822
C           22.30568830761537       21.67221085451711       15.17105896897812
C           20.77849479763937       21.55730313670972       15.13939025698954
C           20.27235944605694       21.14873444437706       13.75473179697334
C           20.31450210838418       18.74464233396685       13.50149660401670
C           21.11538009215893       17.57884976269192       13.22653900002928
C           21.64764456488458       16.51151024527709       13.05754072964329
C           22.38621138839077       15.25355488198426       12.95192339136154
C           22.57673479084800       13.30150696446118       11.46363063397884
C           22.43661110260084       15.48571100637609       10.51857437797946
C           23.88105054096886       15.55973215492706       13.18600089327417
C           21.85577199091929       14.36661013779702       14.09091233874327
C           22.35940146483601       20.08533095717643       13.20728716811480
C           22.96523060954472       20.42533780241854       14.57184138420351
C           22.25849024703543       24.29124403846748       16.61724867940595
C           20.19695684038605       20.32536781812223       20.39961385983603
C           20.35459419155100       20.15165325695431       18.87687981354629
C           19.57171658140584       18.91332460291234       18.41945912177713
C           17.78374463526125       20.28791630127840       17.68885380316621
C           18.55247061385763       21.52396857900589       18.15608607755968
C           19.86410516306847       21.75403584542186       24.60995887622370
C           19.19320985350195       20.51479277485733       25.19776197429746
C           17.76438132346756       20.41725542314074       24.66704127929997
C           15.80235186603840       16.66457457287835       19.77411528145185
C           15.58083799825576       15.90163379152512       18.60056410829985
C           16.21054369727355       16.22189985792341       17.40118498593269
C           17.05612058935490       17.30980721446071       17.37847635040443
C           17.29964871521643       18.05855555820131       18.53929342219705
C           16.69682909250308       17.73131271763243       19.73378420014307
F           22.70758695462073       22.76065798759746       14.38264463398724
H           10.25340085650972       15.93618091253666       20.89874274512783
H            9.62161496314201       15.95444762900894       19.25208831971517
H            9.44417023607969       14.49917815095148       20.25440334472318
H           12.10036802689975       15.63378095246391       19.25541822517725
H           11.78749588343015       15.43569635439339       16.98138910080022
H           11.05873370905324       13.92126804349163       16.36666453184321
H           10.03609851349192       15.13690838420200       17.17144717843944
H           11.10679361989491       11.60237346925623       22.58545090195370
H           13.48506517410483       11.73490419237894       23.34684356791727
H           14.99528288265658       13.35281296283896       22.18876700669781
H           13.47382826857534       13.32485496474550       18.33759969453322
H           14.41489633816353       14.06875593754777       17.03415070391074
H           15.56458842868154       12.37709719477414       19.31239906686676
H           15.35931024446555       11.84654797424868       17.64047272311257
H           16.51525035309833       13.12960364301600       18.02707714556611
H           14.52881332619662       15.72813511329889       22.83244549327085
H           15.90462996203322       16.81175339488360       22.57677113849947
H           14.74712123182437       18.08589440023111       24.47374661159924
H           13.14100108026779       18.78492866987875       24.18820031139376
H           13.31970170459403       17.03832525887269       24.40025641970622
H           12.73733040584004       17.51916720937669       20.71568566539542
H           12.19368841594937       16.61159816516058       22.12705419320282
H           11.94248925124510       18.35990152718211       22.04472443621119
H           13.98650711700369       19.92560734757478       22.17114873323287
H           14.65834810533389       18.99485332336126       20.81227148686962
H           18.29621410337205       19.52180455932032       22.76608941148356
H           17.97375587156931       22.42744356594255       22.76706228266992
H           19.95033770943303       22.47751128624531       20.61367692897162
H           22.64319194806990       21.36449975072506       20.23424855615268
H           23.85750784477301       22.24659703791496       18.73954924167207
H           23.63862154967934       25.28722959282310       18.60791985193633
H           26.07207571132673       25.15587583226832       18.13343272739355
H           26.00843386345940       23.39466522959538       18.20627738104894
H           25.18883524737883       24.25023516225514       16.90350173540502
H           25.08167329456402       23.46545141902497       20.58480449323429
H           25.21366473693925       25.22675711024069       20.51900001793457
H           23.67560745189292       24.47050982006271       20.93168902783150
H           20.49537557507418       20.80709145704023       15.87881391648035
H           20.31885773950417       22.49863483747178       15.43652097461951
H           20.48954447811649       21.93429160210741       13.02547586642687
H           19.19649080781613       20.96632327172438       13.78832958930332
H           22.21504440388529       12.94552636258383       10.50005515375881
H           23.67517995022355       13.23268530570221       11.45928608368618
H           22.18055114981789       12.64706743516318       12.23480275007636
H           21.91879877570117       15.10494899480298        9.63790877293691
H           22.10374949214700       16.50614262192097       10.70068497996539
H           23.51623907842596       15.49205263778926       10.30350933907872
H           24.00985749845423       16.02527393233307       14.15931690382618
H           24.45752868604937       14.63898161994890       13.16056505557582
H           24.25988813064607       16.23909421424499       12.42635101737804
H           21.81606958076586       14.94647969736276       15.01005883316638
H           20.85194155029069       14.02564661463733       13.85265954626044
H           22.50546112496008       13.51129355405336       14.25187416421035
H           22.79337256002850       19.16251924899026       12.82080367094705
H           22.55320112613194       20.90145745597625       12.50605957606248
H           24.03573214589706       20.60615927321334       14.47207676382728
H           22.81789307744265       19.59999736246801       15.26934314623772
H           21.70068981389710       24.79813887076448       17.40426632080655
H           23.05432040986546       24.93876510047732       16.25131832653193
H           21.57852011937460       24.08420112922526       15.80078448985460
H           20.78381445415061       19.54275367784392       20.88503259943125
H           19.14629206655849       20.20167083674311       20.65770320330616
H           21.41106562630108       20.03471087051858       18.61088828693844
H           19.83173050809761       18.05837525433123       19.04464589302531
H           19.84101240763065       18.67797658670837       17.37228659234351
H           18.02735422297869       20.07681525742489       16.63182455576496
H           16.71126336092095       20.46383889704465       17.77638302809564
H           18.22212209014140       21.79206736539467       19.16636654869674
H           18.38950759649275       22.37074149602183       17.48881302576468
H           20.91820608002022       21.81190527618644       24.88128674153822
H           19.35159693459713       22.66081633969899       24.94933548465308
H           19.19018327637606       20.57958033410444       26.28506520224757
H           19.75726101292622       19.62833718086390       24.90337992034387
H           17.17478701514847       21.26846160005109       25.01678385678044
H           17.28774526532111       19.50005112992843       25.01076095025856
H           16.04712329419561       15.64395913083133       16.50482461711396
H           17.54564444716603       17.58741139010774       16.45442740755967
H           16.93102142921904       18.30289274166957       20.61491655875064
*
