! SP DFT wB97X-D3BJ def2-TZVP RIJCOSX LooseSCF
! D3BJ
! CPCM(water)
%maxcore 4000
%pal
  NProcs 8
  End
* xyz 0 1
C            9.52243095447971       15.61667137003774       20.69049559830365
N           10.72219362483939       13.29640709929840       21.78851085956605
O           10.45165855315140       14.10699533690970       18.98406357767425
C           10.76466559791447       14.97886188562459       20.06987532827025
N           13.94528747726981       15.03650777459947       19.16834714097564
O           15.72694342498214       19.14093461827552       22.76859047427635
C            9.95701641919730       14.74761421891125       17.82922702346805
N           18.50412289031375       21.33525380219845       22.45258231064321
O           19.66441074934193       18.18504436541471       13.13377628157013
C           11.49016287316384       14.11469639653412       21.08422298040033
N           19.78560134783960       21.45079225755127       22.99576879862342
O           23.28804834330676       20.47155666953618       17.41951761810936
C           11.27100706087389       12.50102597047767       22.68878897818032
N           21.86284169830651       21.55804403949202       20.00650946699035
O           21.68404813774557       23.80478003863674       19.98749374046697
C           12.63157274509131       12.47941916746219       22.95051723188529
N           22.96267695449088       22.70097202733948       17.40452510546929
O           19.50577884639194       21.12459810802906       18.08987814008092
C           13.44257925874952       13.32742391542250       22.21948090633928
N           21.34626050312513       19.69960422083521       13.29504565719161
O           22.01036390865844       21.48948748785994       22.66152666475923
C           12.88101430360180       14.16815133965738       21.25685273799463
N           24.39780816171265       15.38469783518446       12.07381481171091
O           15.79172941543040       21.26762188110775       22.05960168195354
C           13.76721357822581       15.08513021629427       20.53402177323387
N           17.66065604359679       19.09978501575851       18.65635093472305
C           13.51036161680020       13.97661233891961       18.29231355310797
C           14.61510166382650       12.94165205154433       18.08650206764999
C           14.55291386937570       16.07406172046103       21.08456828008062
C           14.63063649929429       16.46653314172602       22.52513210876031
C           13.78529736274075       17.69967697452076       22.92367640723189
C           13.78786626498804       17.82009021777785       24.44992369367012
C           12.34929076838911       17.54594210748196       22.42435855363370
C           14.37068200741910       18.98179612321973       22.32190376053788
C           16.31690594507423       20.30113173264076       22.57011602002514
C           17.73677479955207       20.28735398859221       23.11182827552042
C           20.87504334097767       21.40993085539186       22.21026222157855
C           20.61719339196760       21.33085566204831       20.70012961318489
C           22.28481106729348       22.78006742379326       19.68364842455260
C           23.50872260103149       22.77883898987581       18.76302328512003
C           24.43388499238993       23.97894800116670       18.98961507243564
C           25.60196118359339       23.95483446485062       18.00668722040640
C           24.95035627312596       23.92863929976613       20.42739870133797
C           22.93181784303723       21.49520948251743       16.82876794337480
C           22.45851265306107       21.34578982758094       15.37593726676738
C           20.98008302564457       20.94695851974415       15.35486018674144
C           20.51288216228217       20.69932741968663       13.92183185728207
C           20.84720844626997       18.49202461154325       12.96982523241813
C           21.78693140658631       17.58336583029903       12.36471899658190
C           22.48200331073457       16.75882284671759       11.82972337092409
C           23.38336153281656       15.85355980614233       11.11958883343541
C           25.18934868412240       16.44798544176333       12.66093318117081
C           25.25608968712431       14.32205969361844       11.59259677934580
C           22.53511642551966       14.67752266020307       10.61106534499685
C           23.95366202673247       16.63821428553339        9.91606692433793
C           22.74389642761192       20.05638068322567       13.24208977209032
C           23.29021110383851       20.27990717021091       14.65397891433230
C           22.27727089118902       23.87892908787720       16.91846015441479
C           19.99601723674205       20.01121161773114       20.24108544677776
C           19.93061784384840       19.91693385580166       18.70459356931291
C           19.01885544095919       18.74934447759144       18.29681804666301
C           17.23559951138911       20.25861455366721       17.89568942003609
C           18.13474480140763       21.42279479464803       18.30400736487188
C           19.88790039835723       21.63363265781002       24.43662609186511
C           19.14088573803842       20.51228865610878       25.15438389451499
C           17.70332725144717       20.45749402863708       24.64199502493353
C           15.27182038205102       16.65977155669803       20.00198234751613
C           14.86342902806872       15.98789701425512       18.82292643759294
C           15.36933488777616       16.34243851410627       17.57625173265920
C           16.28694331531731       17.36776201691302       17.51364028621931
C           16.72474431809284       18.02014188220650       18.67582392957240
C           16.23532520340356       17.66234032488860       19.91328323064359
F           22.62915033726659       22.53974379058397       14.66740109258537
H            9.02217426111677       16.25774835419952       19.96983651223463
H            8.84513522484803       14.83345450724385       21.01690933413188
H            9.81258682109373       16.21883944955480       21.54680837800505
H           11.44264664751877       15.76791507873226       19.70506190447318
H            8.95070490091683       15.14472773961414       17.98399273119601
H           10.62309274383804       15.56000344603837       17.51738093190454
H            9.92536863650539       13.98242449353289       17.05660883485083
H           10.58146265055683       11.86157118304935       23.22411522977488
H           13.04201629180359       11.82048240186368       23.69757705331102
H           14.51110823946621       13.34051494008605       22.37248591612865
H           12.62853978877614       13.50046852584640       18.72293383192034
H           13.23079466648766       14.41593107747868       17.33199372633920
H           14.24963579264913       12.13148785177078       17.46294815910695
H           15.47677816216540       13.39827906578495       17.60278080187630
H           14.93286980934261       12.53282620905521       19.04370365100578
H           14.28782060383258       15.63086831647828       23.13566683541227
H           15.67110138385324       16.67518984206188       22.77796470913781
H           13.28515541413861       16.96638340624539       24.89534139937783
H           14.80626243169424       17.86124795708462       24.82632850369733
H           13.26798528194421       18.72440377970004       24.75930924525310
H           11.93129717105486       16.61151770614808       22.79103688399261
H           11.73119360267223       18.36691275370427       22.77800366726112
H           12.32023025325814       17.53213804151919       21.33863312042912
H           13.79638982000808       19.86030756484771       22.63188161942008
H           14.37093611808558       18.94004163660299       21.22881440600043
H           18.20160401789229       19.32543913978618       22.86851459352307
H           17.99760967383759       22.21487355849857       22.51221195109247
H           19.96076683747379       22.17147170337201       20.44546077535930
H           22.42911788420363       20.75413005870583       19.76882043830819
H           24.07846441742633       21.85829525730870       18.91867230533501
H           23.86129799005617       24.90112429704939       18.86312874900515
H           26.24086842631682       24.81781531007733       18.17068538857357
H           26.19415498756186       23.05383673741386       18.15241723545649
H           25.25338760320742       23.97224121203410       16.97737183285777
H           25.53602221270623       23.02699765713636       20.59203158355505
H           25.57696527294222       24.79256273726847       20.62940428052809
H           24.12246919015898       23.93039695845308       21.13267738153258
H           20.88268968540839       20.03174261359833       15.93895131919116
H           20.36329562040046       21.70921591206041       15.82910918288239
H           20.57799225941126       21.62640691241107       13.34425379642733
H           19.48340827069910       20.33798095956088       13.91424941702543
H           24.53470247698515       17.24583363757951       13.00295142646825
H           25.71536714190183       16.04406914723450       13.52561452327574
H           25.93512673842301       16.86437510409971       11.96929383362916
H           25.89232196687293       14.01087944803506       12.42057179503915
H           24.66199374374851       13.46666163173404       11.28478622184138
H           25.90797961119878       14.62875457825549       10.76097140855354
H           22.27285545168603       14.02504143780400       11.43837152549320
H           21.61888814022862       15.06034502068534       10.16862295781959
H           23.07151580002012       14.11347285881352        9.85463909443754
H           24.39231271592051       17.57986660255929       10.23915694612999
H           24.71425864397682       16.04535742372563        9.41230015557410
H           23.15493815880885       16.85374906451608        9.21126781820111
H           23.30090799006963       19.26401520968295       12.74349480343121
H           22.84486066445466       20.98245831165193       12.66558740462334
H           24.32904807460523       20.60711016086194       14.60032413058679
H           23.24595313165841       19.36196451506429       15.24050190811244
H           21.95151053618456       24.45820758782113       17.77836861148319
H           22.92976199544944       24.48781017309384       16.29812985261874
H           21.39566896858110       23.60673853441263       16.34605507909979
H           20.59086749732273       19.17498408174351       20.60804241968287
H           18.98491243476708       19.93730427530848       20.63493970973296
H           20.93548842789824       19.75543743092539       18.29852854897159
H           19.31126204898355       17.84677648054677       18.83420975885266
H           19.12771957802547       18.56361240554212       17.21178069185071
H           17.31237167363376       20.09491826625801       16.80549332233594
H           16.20003813774695       20.49103039881041       18.14817110703254
H           17.95166765320921       21.66008143242152       19.35842012032630
H           17.93384549598699       22.30493986065024       17.69435712328895
H           20.94959210246568       21.63880236340557       24.68313151335019
H           19.45371769431096       22.60525831646328       24.69695047831392
H           19.15728815983888       20.69548977521985       26.22770348490027
H           19.63881614463047       19.56215687045888       24.95624412402018
H           17.18514804436817       21.38750494165571       24.88689571840072
H           17.16082798951222       19.62747131779896       25.09108471212243
H           15.05079698385086       15.83885181383832       16.67677206443715
H           16.68627332423752       17.66728847701131       16.55470278220287
H           16.61314675069666       18.16377843080611       20.78819745115366
*
