! SP DFT wB97X-D3BJ def2-TZVP RIJCOSX LooseSCF
! D3BJ
! CPCM(water)
%maxcore 4000
%pal
  NProcs 8
  End
* xyz 0 1
C            9.31430738610215       15.62411472410001       21.25848572216792
N           10.64188612853721       13.25830956357950       21.99493442675131
O           10.10146592434304       14.31945462018473       19.31677528654441
C           10.49810575424452       15.09088466793189       20.45282645093292
N           13.72415341812057       15.13391188410464       19.24568985448904
O           15.73389474825800       19.06535236791715       22.91648356552687
C            9.30794381581819       15.00695263236160       18.37424046017463
N           18.60350259023211       21.13841410202204       22.61741294539730
O           21.19809723847911       17.28120104714989       13.20086509450140
C           11.33361829304203       14.15233025870867       21.29974461259419
N           19.91821731890250       21.13688050911014       23.09155964328312
O           23.75873464606827       21.02742171021024       17.30971490666780
C           11.27751354126651       12.38332467816193       22.74987692550222
N           21.68770977244278       21.65082623880054       19.97095510940714
O           20.92727675836233       23.76737651041737       19.89329033974903
C           12.65888036595053       12.35032478949932       22.87098037981555
N           22.42602529905007       22.84351912765295       17.28198439287548
O           19.59959948148942       20.90392401747045       18.06819264157524
C           13.38734983274601       13.28125374940612       22.15574337274861
N           22.14111541736531       19.34435489988229       13.28819697096235
O           22.11686431141143       21.14418635102532       22.60199250350980
C           12.73167689603861       14.20613404036184       21.33954737965692
N           24.70327679816429       14.84125268033687       10.76700648960748
O           15.89212942054691       21.21700573865223       22.30737598411534
C           13.56972269664780       15.16900289716171       20.61335190911467
N           17.66059581298306       18.99256151911760       18.72360897164163
C           13.16549384676517       14.14417951051461       18.35904026467900
C           14.06980417296226       12.91673480064542       18.25565448080486
C           14.40507033659198       16.11498592426268       21.16479172123752
C           14.51610735893118       16.46843394187360       22.61272462451333
C           13.72164321585485       17.72188408543186       23.05118444031302
C           13.72338450357021       17.79091706103592       24.58058109097721
C           12.28376292034514       17.65380645253815       22.54115120759261
C           14.36421406915394       18.99609932453814       22.49230463928362
C           16.37938760073379       20.20161370542566       22.75271368068673
C           17.81656852482541       20.07969201267256       23.23105826899378
C           20.94746535570695       21.14480742477948       22.23285040015352
C           20.56292586858311       21.19156210725835       20.75053892949341
C           21.76351821518344       22.92565632250630       19.58012471180139
C           22.90618956694209       23.22799954058564       18.60998080860304
C           23.34306413176895       24.69917818518897       18.67882564093822
C           24.35767984633694       25.02079839612103       17.58526191524307
C           23.94416840296334       24.96981811957971       20.05716508326374
C           22.95554715426277       21.75462279188915       16.71892411261732
C           22.55331362660091       21.35991441093920       15.29081121238110
C           21.37193048917053       20.38752234701925       15.35136952763390
C           20.99540502094271       19.93281386897193       13.94353524463617
C           22.15218905872257       18.03654596643113       12.98453691656663
C           23.32405739488936       17.53864970478944       12.31674646577905
C           24.21882020248142       16.99824698679914       11.71595665151684
C           25.18714155752334       16.22273247521795       10.94354437993284
C           23.42838583965267       14.75718202808669       10.07503518478093
C           24.64467511380359       14.08295233685122       12.00424772993250
C           25.37057562979994       16.89132238076884        9.56986749307755
C           26.54139801273546       16.22610647289745       11.66742707844509
C           23.27727828772994       20.22652191964122       13.17088557733102
C           23.72691513280856       20.70572945569863       14.55483874068926
C           21.31770506301242       23.61972675521906       16.76398704072111
C           20.03966061827560       19.83550163547720       20.27053770189392
C           19.96907815056545       19.70766317094877       18.73561605452793
C           19.00166662185584       18.56791756750583       18.37234823104478
C           17.28724158910477       20.14777135131935       17.92978712571072
C           18.24776494715047       21.28090991468600       18.28081333604315
C           20.10820149497545       21.19977499581151       24.53310879771880
C           19.32704304745269       20.07489817873856       25.20889310656721
C           17.86450081965739       20.13055108520944       24.76957752899389
C           15.13818589818835       16.68225944147104       20.08113616406908
C           14.69046353956766       16.03521070087439       18.90066325498303
C           15.23051749200099       16.34985767735186       17.65784818206752
C           16.21008683662270       17.31632221226144       17.60014976657602
C           16.66955667580202       17.95937355600559       18.75936319880832
C           16.15041724857077       17.63747656841954       19.99505115542841
F           22.19283596701755       22.48779480990495       14.54378382219273
H            9.68232185761573       16.11828052435964       22.15200674349989
H            8.74205296381407       16.34006785088716       20.67641736093154
H            8.68028281453810       14.79273442912231       21.54970740954349
H           11.12028017424644       15.93236604856336       20.10154228779595
H            9.72473838348834       15.99430006068586       18.15974740833849
H            9.32474060417435       14.39954499553161       17.47209064134849
H            8.27695955971310       15.10958729128752       18.71776488036562
H           10.64696887868296       11.68354050342692       23.28116072914852
H           13.14407749238699       11.62090255484597       23.49828397742883
H           14.46637098897842       13.29717750328071       22.20706662230801
H           12.18108011017354       13.84886134661854       18.72763859659089
H           13.04248152789091       14.60186139577532       17.37475283729303
H           14.15213948595938       12.42785151063021       19.22349877889538
H           13.65282405750101       12.21118617600933       17.54386787971454
H           15.06507319928116       13.20560992964209       17.92548312563517
H           14.14933955450384       15.62774082222396       23.20388336772992
H           15.56595370983147       16.63162490580152       22.85956238515829
H           14.74225127923259       17.83078467456731       24.95585316071215
H           13.19277810349242       18.67690731223951       24.92087999710697
H           13.23249558997020       16.91599558329116       24.99784390365793
H           12.26253556280619       17.65775836623876       21.45486863590484
H           11.81363271917300       16.73943412789330       22.89190890775518
H           11.71016684911872       18.50384185790468       22.90020185499792
H           13.84234558931479       19.88945485129268       22.84843170557815
H           14.34362573001919       18.99820334270498       21.39865072821162
H           18.21652477387541       19.11751411486955       22.89458014734535
H           18.15396699879640       22.03695843255027       22.79141380064545
H           19.79282185668357       21.96111252865360       20.63510253712997
H           22.43180985631014       21.00158847189138       19.76095651407893
H           23.76151463260905       22.58222286152552       18.83182821416070
H           22.45745026920839       25.32929561856956       18.56118574686271
H           23.94183244531726       24.85394021964573       16.59557199417106
H           24.66043704684103       26.06124670655518       17.65935333059528
H           25.23934756822587       24.39337670008907       17.69565421028025
H           24.83699206552985       24.36753618973313       20.20970115644734
H           24.21273563370647       26.01846987972255       20.14629126468839
H           23.22773302172725       24.72961964240616       20.83913007610854
H           21.68718354210635       19.53013804083956       15.94963269549906
H           20.51591247016905       20.84545875753989       15.84776265656845
H           20.65626517267454       20.79267426252858       13.35718087660387
H           20.20576112522517       19.18056558800983       13.97918995303280
H           23.49814605955861       15.22772547598399        9.09969491407906
H           23.19154764702128       13.70487450283895        9.92546922414411
H           22.60415990297638       15.22065734719865       10.63896166371306
H           23.99879209661622       14.55262970514283       12.76297781251276
H           24.24279972342333       13.09648333142609       11.78072795267296
H           25.64270843072954       13.95410837057963       12.41286588484947
H           25.89301199411792       16.20511627380708        8.91076803660501
H           24.41705473748598       17.16297927232504        9.12572846723632
H           25.95800404326991       17.79826067769705        9.68040671537531
H           26.43486393587423       15.96986939134278       12.71771288960796
H           27.20233860784806       15.51187726804207       11.18535537550941
H           26.98390125006899       17.21655809688118       11.60771825769143
H           24.09061605083527       19.70128444615892       12.67063797985396
H           22.98268741571588       21.09307732044928       12.56965563283909
H           24.53410574765812       21.43019932654462       14.44745399585865
H           24.08639356649832       19.87392771385282       15.15929184259315
H           20.64380414289431       22.99715920922577       16.18527890252877
H           20.76070550518558       24.02049105914923       17.60761939823784
H           21.66806777365112       24.44210428675750       16.14116425882835
H           20.68733069434426       19.03965535445529       20.63951449817941
H           19.03747678538667       19.69825897112015       20.67236215155513
H           20.96541092913808       19.48830319350306       18.33675572900233
H           19.25330329524623       17.67263651099882       18.94151487786542
H           19.10036383904933       18.34120500430008       17.29472412537176
H           17.34054374641461       19.94411239992408       16.84460295054794
H           16.26872578499099       20.44080052264943       18.18646036820751
H           18.08958177397075       21.57471576024335       19.32409837540077
H           18.08715936731748       22.14586903596420       17.63542869709993
H           21.17927049652709       21.11694978178935       24.71768909981012
H           19.75626862604371       22.17435575279785       24.88963621350759
H           19.40262230780908       20.18337604391365       26.28947550038765
H           19.75798737191028       19.11425165844472       24.92474812615161
H           17.40417383930767       21.05960982474184       25.11386797111986
H           17.30503176518839       19.29153231819939       25.18061892314272
H           14.90269227654968       15.85336483224520       16.75720641471187
H           16.64309256668173       17.57781923161042       16.64521100388134
H           16.54291750303228       18.12429374023990       20.87189863891180
*
