! SP DFT wB97X-D3BJ def2-TZVP RIJCOSX LooseSCF
! D3BJ
! CPCM(water)
%maxcore 4000
%pal
  NProcs 8
  End
* xyz 0 1
C            9.89217471246347       16.21003783234815       20.73310888764520
N           10.71883104306522       13.56986718617129       21.32816241462798
O           10.50584458247507       14.93452688546680       18.73230645643899
C           10.99981044370810       15.51612813475240       19.93913236670627
N           14.14112955386165       15.10674077731727       18.86952463344318
O           16.34281166973860       18.74434028359605       22.68615196412602
C           10.24924546390437       15.85681138546730       17.69660252648846
N           19.03052184742716       21.01694693943260       22.51805589132427
O           19.34862102142177       17.80359576495314       14.15783881164521
C           11.59314665908633       14.37639008862110       20.74564603651099
N           20.35975525953723       21.13416414797612       22.92784488228184
O           23.05661836334051       20.91225948274028       16.78910634215651
C           11.15360181181872       12.54846917220721       22.04414187221699
N           21.96094568080275       21.85781176456392       19.74034897868627
O           20.95160027907307       23.81699237129999       19.25218258782266
C           12.49876476835460       12.27472413089396       22.23446697577502
N           22.35702484946450       23.04876671478177       16.73443011674387
O           19.72046017314010       21.15217027078936       17.99992362340770
C           13.42000468685872       13.11283676646896       21.63377706712141
N           20.67796664575619       19.40667544414736       13.25293572141027
O           22.51886000867192       21.39346881815977       22.34699985788236
C           12.97794640733434       14.18653220959383       20.86178604418637
N           24.41967015763515       15.56487638276816       13.13197277627980
O           16.29754589666869       20.98531361650998       22.60383720445277
C           13.97494080202814       15.06164688899878       20.23594120625053
N           18.05572747018776       18.98309429722043       18.60529655588947
C           13.52251523309375       14.23135789767624       17.90514094252143
C           14.35825558356079       12.97370949729516       17.67742965716052
C           14.87466861915092       15.90055908081194       20.85604146525837
C           15.05286169003110       16.11460564844877       22.32650865476668
C           14.35246413649869       17.35677545942694       22.92318823321093
C           14.53080002304272       17.34471138449219       24.44345848420899
C           12.86286398593887       17.33679566883804       22.58459702215458
C           14.94567908970106       18.65369021550081       22.36149153918108
C           16.88975735886898       19.93839548089070       22.75638311214903
C           18.36736213747674       19.85745926561260       23.10251839108613
C           21.34288844963967       21.28409603430770       22.02430706394107
C           20.89079378112817       21.34909761411338       20.56494971603632
C           21.86686580230816       23.01757650997920       19.08400368126269
C           22.97363340527164       23.25353401941150       18.05054039047233
C           23.64621366764226       24.62293079039359       18.21171794272120
C           24.81029121340343       24.75552963399706       17.23374396556499
C           24.14853875170147       24.76264064050588       19.64863409528857
C           22.47483907350361       21.83071750002951       16.20122206822644
C           21.87327381005127       21.51232026694974       14.81736902370043
C           20.42318486426914       21.05863815777528       15.01147717175745
C           19.83149790872205       20.47866212296662       13.72639643365380
C           20.39649208068272       18.13111880983406       13.59482473102987
C           21.38042296518683       17.15266843347395       13.21595849253834
C           22.08866456031597       16.21238453430894       12.95376458713634
C           23.07883498270741       15.17142130493713       12.66971262903857
C           24.49735374599328       15.80383615463428       14.56149146628165
C           25.00000478137953       16.67856826554566       12.40424260176391
C           22.64437862107765       13.87869865711441       13.38129686873359
C           23.09225010538415       14.90720219108899       11.15554513352956
C           21.99906050089471       19.86670392659617       12.89639949436053
C           22.70800470865111       20.42275223885121       14.13410240886568
C           21.51302170616038       24.11978815059101       16.24818191512460
C           20.42104981136795       19.97779949591157       20.05769209664713
C           20.26236197344009       19.94814531787363       18.52639758734670
C           19.39621404941080       18.74513248062343       18.11640150186613
C           17.49732751746798       20.16450710686569       17.96854311679585
C           18.36325596786797       21.35984167844057       18.35219374460709
C           20.62466025724656       21.10984418050740       24.35861124669989
C           20.01687250133755       19.84971774921199       24.96991231817337
C           18.52768750422921       19.79710227982626       24.63366388759568
C           15.63967489864696       16.50001357713766       19.81252273898529
C           15.16354376001348       15.96666810198480       18.58931473863034
C           15.71517636255832       16.34329381918510       17.36870896055751
C           16.70062493293580       17.30483132059710       17.37114827802806
C           17.14967020229507       17.87529336203211       18.57188822030260
C           16.65916495770906       17.45046818514353       19.78686065181600
F           21.90425380647091       22.63501520809479       13.97858108763473
H            9.08172713323281       15.50457443697497       20.88960267550065
H           10.27736219792995       16.53073511277957       21.69545705114228
H            9.52017112020751       17.08000636872458       20.19905485338747
H           11.79485410370028       16.23589985157778       19.68634174717383
H            9.76192714292032       15.29115113611206       16.90613312285541
H            9.58850267773326       16.66243441603583       18.02321306253502
H           11.18416771910644       16.29115052072505       17.31947421567807
H           10.38242068718749       11.93104584963893       22.48343746209515
H           12.81378552462198       11.43275941425452       22.82831698725621
H           14.48106513289493       12.94102561299521       21.74155985179448
H           12.52493762579964       13.95915797250923       18.25583883914259
H           13.42055150096310       14.78262798852509       16.96775974768225
H           14.43094887308019       12.39661762509450       18.59650627422638
H           13.89345285932763       12.35721318183659       16.91344232865363
H           15.36139170193989       13.24145220557089       17.35300461223184
H           14.66500109584648       15.24171697616244       22.85378109005251
H           16.12091132663227       16.19780487823243       22.53520647607748
H           15.58517956078325       17.31326678922029       24.70667160443564
H           14.09186480570712       18.23918370570396       24.87975999043255
H           14.04030415385156       16.47665409568575       24.87368264169059
H           12.34537208698653       18.15531747525685       23.07871094845527
H           12.71525377245147       17.43201229418601       21.51250389824935
H           12.42396497589347       16.39763961191040       22.91252256885304
H           14.43722548619366       19.52811014889359       22.77883018709519
H           14.85213783820012       18.68311556845214       21.27216812297199
H           18.79627512814255       18.95336390217446       22.65774139351756
H           18.49839624004422       21.85656077157396       22.74221744917161
H           20.08244509356062       22.08347061973804       20.49074070615384
H           22.75110037626187       21.25043501552041       19.58101200513606
H           23.73408103661323       22.47411304302946       18.15315670006416
H           22.91081010769997       25.40889397123930       18.03000059918442
H           24.50047522545251       24.55227762689099       16.21307247060256
H           25.22584527716141       25.75694983279540       17.27816136788410
H           25.59314534947557       24.04824041291172       17.49920078830633
H           24.83872379907996       23.95916294675387       19.89484509590709
H           24.66340213643900       25.71164791921786       19.76865793985947
H           23.32077515571146       24.72756255200966       20.35501625074563
H           20.43063557779944       20.28742446993164       15.78162880885180
H           19.80787730693503       21.87983877305759       15.37495350060536
H           19.77208428082341       21.24456581973531       12.94909822016534
H           18.83698124905532       20.07484888512197       13.92370425966925
H           24.22461543093181       14.90592417004596       15.10821883901163
H           25.52828725745457       16.04830104753910       14.81091683374860
H           23.85447168623908       16.63263427764936       14.89682759083007
H           24.40300529983444       17.59981573806987       12.48139308306875
H           25.98631899604242       16.87718821885899       12.81936870739111
H           25.12447790251330       16.41842274732511       11.35751126954391
H           23.46423114742551       13.16657381804141       13.35567167506942
H           22.36035504840306       14.06774099949718       14.41337887999330
H           21.78392769183108       13.45292018749317       12.87306651586429
H           23.91524158167458       14.23830711812907       10.92072707864545
H           22.15631797657618       14.43913020512747       10.86103734115422
H           23.19627687095335       15.82752011320159       10.58729839927052
H           22.57224092314009       19.04044351785224       12.47455268488382
H           21.89379507144751       20.65370220190716       12.14459820887546
H           23.67476556664518       20.84379442871035       13.85273685924817
H           22.87810418995012       19.62890582391465       14.86323899103884
H           22.10888620414264       24.88030272766338       15.74222370135336
H           20.76266053790396       23.75024359622751       15.55992865496860
H           21.00108962026064       24.55818673296135       17.10452684475165
H           21.14720231506251       19.21377159074601       20.33537181498048
H           19.45944848720969       19.74617162302544       20.50951232559880
H           21.24796583314647       19.87592988032263       18.05110403733598
H           19.78737160069478       17.83415660805196       18.56940494647935
H           19.42721349699332       18.62662458395425       17.01763418446272
H           17.46600248304645       20.06441960473105       16.86788706213027
H           16.48129080491857       20.31537038893569       18.33873320536999
H           18.26466865730529       21.53992432520261       19.42879110384602
H           18.06029787878912       22.25778683479103       17.81139340055051
H           21.70615949177695       21.14442412039762       24.48501413146217
H           20.17985566441983       22.00210030290155       24.81325426545087
H           20.16301304057189       19.86238491638605       26.04849623312606
H           20.51707379212495       18.97204423932022       24.55996390521851
H           18.01395097247357       20.65124223630308       25.08030894721265
H           18.07667078577920       18.88209496370584       25.01323890511319
H           15.37829685481388       15.91026322670385       16.43969253962788
H           17.13694806662985       17.62246253318188       16.43410277399570
H           17.05724722316770       17.87507537527570       20.69223978390598
*
