! SP DFT wB97X-D3BJ def2-TZVP RIJCOSX LooseSCF
! D3BJ
! CPCM(water)
%maxcore 4000
%pal
  NProcs 8
  End
* xyz 0 1
C 7.522100 29.655600 60.983700
C 8.367500 28.601101 60.270100
O 7.571900 27.638399 59.579899
C 6.897300 28.133900 58.444099
C 9.197500 27.813400 61.266201
N 8.561700 27.433901 62.365101
C 9.205300 26.733200 63.280998
C 10.537100 26.369200 63.158001
C 11.210100 26.761499 62.015900
C 10.544400 27.497101 61.034801
C 11.294300 27.913000 59.843899
N 10.999900 27.429800 58.590801
C 10.122000 26.323500 58.298901
C 10.862500 24.990999 58.398701
C 12.381000 28.760599 59.788101
C 13.011400 29.468901 60.945801
C 12.515700 30.910200 61.210701
C 13.018800 31.357599 62.585800
C 10.990500 30.976299 61.181099
C 13.052800 31.868700 60.143200
O 14.482300 31.941900 60.253700
C 15.147300 32.534302 59.289902
C 16.650600 32.469601 59.498001
N 17.296301 33.629902 58.896702
N 18.664499 33.370998 58.771099
C 19.259501 32.772301 57.727200
C 18.406900 32.545200 56.467701
N 18.798201 33.514099 55.469101
C 18.059799 34.600300 55.211201
C 18.604799 35.412102 54.032299
C 18.026600 36.829102 53.928299
C 18.563999 37.526501 52.680698
C 18.409201 37.619400 55.178902
N 18.366899 34.604198 52.835300
C 19.401100 33.913898 52.347301
C 19.253799 33.074699 51.073700
F 18.202101 33.529999 50.274601
C 18.990900 31.620701 51.483601
C 18.964300 30.715900 50.251598
N 20.199600 30.856400 49.515499
C 21.094299 29.853800 49.479401
C 22.329100 30.137899 48.795200
C 23.406900 30.190701 48.261002
C 24.708099 30.379000 47.624901
N 24.834900 29.374800 46.560299
C 24.639601 28.009701 47.006599
C 26.036900 29.476200 45.758499
C 24.714500 31.794600 47.023800
C 25.778000 30.280899 48.733601
O 20.883801 28.741100 49.968498
C 20.454000 32.197701 49.047100
C 20.527800 33.168900 50.227798
O 20.501900 33.899502 52.908100
C 16.983101 34.466202 52.427399
O 17.030500 34.868999 55.818699
C 18.572901 31.106501 55.963402
C 17.306700 30.545700 55.309299
C 16.155899 30.349701 56.311401
N 15.019900 29.791401 55.609901
C 14.605900 30.706400 54.558701
C 15.770100 30.889500 53.590199
O 16.914801 31.402201 54.248001
O 20.452299 32.476501 57.737499
C 19.282000 33.398399 60.089199
C 18.654200 32.301601 60.955601
C 17.126699 32.415901 60.951099
O 14.642100 33.019798 58.298000
C 12.794500 28.792200 58.422298
C 11.912700 27.942301 57.712200
C 12.055200 27.738300 56.344002
C 13.079100 28.385201 55.696999
C 13.975600 29.230801 56.379002
C 13.837100 29.428200 57.740601
H 8.166700 30.302401 61.569801
H 6.980500 30.263000 60.264198
H 6.820200 29.157301 61.645100
H 9.036800 29.088100 59.541698
H 6.083200 28.809601 58.718300
H 7.591900 28.655199 57.775501
H 6.486700 27.261900 57.939899
H 8.621700 26.458500 64.148697
H 11.027800 25.796200 63.927700
H 12.245700 26.493700 61.864201
H 9.284800 26.338699 58.998901
H 9.728800 26.459200 57.288898
H 11.224600 24.837601 59.412701
H 10.192600 24.176201 58.141300
H 11.712800 24.978300 57.720600
H 12.818900 28.890100 61.850399
H 14.091800 29.506901 60.790901
H 12.578900 30.738600 63.362999
H 14.100300 31.274900 62.641300
H 12.742600 32.392399 62.771198
H 10.648000 31.966999 61.468601
H 10.616800 30.757601 60.184601
H 10.577400 30.248501 61.874100
H 12.648800 32.875999 60.284302
H 12.789200 31.532900 59.135502
H 16.964001 31.535101 58.988300
H 16.862301 33.949902 58.034599
H 17.351900 32.745899 56.662399
H 19.665300 33.361900 54.971500
H 19.692801 35.485298 54.142101
H 16.936300 36.771500 53.880798
H 19.649000 37.591301 52.727901
H 18.293501 36.989300 51.776199
H 18.160500 38.532902 52.617298
H 17.990400 37.153198 56.066700
H 19.490700 37.666199 55.285500
H 18.023100 38.632198 55.108700
H 19.802900 31.318701 52.147598
H 18.054399 31.542801 52.034901
H 18.130400 30.996599 49.601398
H 18.863199 29.670500 50.547798
H 23.754000 27.948000 47.636600
H 24.484100 27.382401 46.129002
H 25.499701 27.608900 47.564899
H 26.952101 29.215900 46.311199
H 25.938601 28.780600 44.925800
H 26.135900 30.477900 45.352402
H 24.330900 32.499699 47.756901
H 25.722500 32.096901 46.756599
H 24.080900 31.821199 46.141998
H 25.737400 29.310400 49.222401
H 26.767900 30.427900 48.309799
H 25.599899 31.048800 49.481499
H 21.388300 32.213501 48.486401
H 19.632000 32.493999 48.387600
H 20.635799 34.189098 49.858700
H 21.377501 32.938900 50.870098
H 16.782101 33.455799 52.085300
H 16.352900 34.659401 53.292702
H 16.732100 35.168400 51.632301
H 19.390600 31.082600 55.242298
H 18.849199 30.457701 56.795300
H 17.542200 29.554501 54.885601
H 15.896100 31.318001 56.771900
H 16.476500 29.648500 57.084000
H 13.745100 30.301100 54.030499
H 14.334100 31.688900 54.984501
H 15.510600 31.613100 52.816799
H 16.017099 29.921200 53.131699
H 20.352400 33.241199 59.962299
H 19.090799 34.382301 60.517399
H 19.032900 32.385601 61.972301
H 18.949301 31.328100 60.557598
H 16.819700 33.334400 61.449200
H 16.679399 31.566700 61.464500
H 11.394100 27.082701 55.799198
H 13.226500 28.226400 54.640202
H 14.524500 30.061001 58.280701
*
