! SP DFT wB97X-D3BJ def2-TZVP RIJCOSX LooseSCF
! D3BJ
! CPCM(water)
%maxcore 4000
%pal
  NProcs 8
  End
* xyz 0 1
C 7.375600 28.253901 60.157799
C 8.391100 27.466801 59.330299
O 7.773500 26.582001 58.396900
C 7.071600 27.216499 57.349998
C 9.242100 26.586000 60.225101
N 8.578000 25.900400 61.144600
C 9.236300 25.096399 61.959400
C 10.611600 24.930000 61.910500
C 11.313600 25.642200 60.956299
C 10.633700 26.491301 60.081902
C 11.417100 27.242800 59.095200
N 11.297300 27.024700 57.742199
C 10.584400 25.936100 57.120602
C 11.465500 24.693701 57.001701
C 12.393100 28.185101 59.343800
C 12.830200 28.695601 60.680401
C 12.143900 29.996700 61.158100
C 12.500800 30.230400 62.628201
C 10.627100 29.888000 61.012798
C 12.612700 31.196800 60.328098
O 14.002100 31.452499 60.591499
C 14.635500 32.284199 59.798100
C 16.099600 32.452000 60.176701
N 16.573700 33.736599 59.677299
N 17.965401 33.814800 59.771400
C 18.861700 33.606400 58.798199
C 18.348000 33.285900 57.386101
N 19.052900 34.114399 56.435501
C 18.469999 35.102299 55.748600
C 19.378201 35.706402 54.668900
C 19.224501 37.225601 54.553699
C 20.058701 37.770199 53.397301
C 19.680500 37.848801 55.873501
N 19.093500 34.938702 53.449200
C 19.795300 33.805199 53.309200
C 19.507500 32.824699 52.161098
F 18.150499 32.795101 51.829102
C 19.887501 31.410400 52.607601
C 19.689301 30.424500 51.459801
N 20.438200 30.849199 50.299500
C 21.437099 30.092800 49.813801
C 22.099600 30.597601 48.640202
C 22.746099 30.813299 47.647099
C 23.477100 31.210400 46.448700
N 24.156799 30.023399 45.914101
C 24.947500 29.294800 46.884998
C 24.922800 30.249100 44.705898
C 22.433201 31.714500 45.436401
C 24.418301 32.367500 46.847801
O 21.766300 29.009199 50.302200
C 20.089300 32.161098 49.810902
C 20.297501 33.213402 50.906502
O 20.747801 33.535198 54.046200
C 17.884701 35.261398 52.719299
O 17.308001 35.450901 55.916401
C 18.608000 31.798599 57.091099
C 17.591900 31.189501 56.118401
C 16.276699 30.832500 56.828999
N 15.349000 30.287901 55.864201
C 15.095600 31.272499 54.828800
C 16.419500 31.580099 54.136799
O 17.374701 32.092800 55.047100
O 20.071800 33.688999 59.005501
C 18.354900 33.900799 61.171700
C 17.884701 32.637001 61.896301
C 16.384100 32.427601 61.680500
O 14.140700 32.833099 58.834202
C 12.923400 28.555500 58.072800
C 12.221400 27.803600 57.102299
C 12.527500 27.919800 55.750999
C 13.540500 28.772600 55.384899
C 14.265300 29.523701 56.332199
C 13.950900 29.414101 57.674900
H 7.896200 28.830299 60.915699
H 6.812800 28.935699 59.526699
H 6.698400 27.556999 60.641998
H 9.040900 28.164101 58.775299
H 6.145300 27.676100 57.703800
H 7.695100 27.978001 56.868000
H 6.833400 26.431200 56.635899
H 8.627900 24.568501 62.680599
H 11.113400 24.263201 62.592701
H 12.385300 25.539801 60.866199
H 9.696000 25.707001 57.711601
H 10.263700 26.263800 56.128799
H 11.757300 24.344400 57.989399
H 10.919500 23.901199 56.499199
H 12.364900 24.919800 56.433399
H 12.628900 27.929001 61.430302
H 13.907900 28.871000 60.654800
H 12.094600 29.430901 63.241600
H 13.578600 30.259100 62.758701
H 12.086700 31.174500 62.972401
H 10.139700 30.755600 61.449501
H 10.346500 29.824301 59.965000
H 10.272300 28.995100 61.520599
H 12.049200 32.095699 60.596901
H 12.479500 31.017401 59.257000
H 16.632700 31.608700 59.696098
H 16.216999 33.957401 58.753601
H 17.290501 33.530102 57.260700
H 20.011600 33.863602 56.236900
H 20.421200 35.487400 54.917999
H 18.168200 37.476101 54.420898
H 21.108101 37.533001 53.555698
H 19.752199 37.343700 52.447102
H 19.953600 38.849998 53.342602
H 19.078899 37.475399 56.699402
H 20.723101 37.610901 56.071201
H 19.572701 38.928902 55.830799
H 20.927000 31.421600 52.933498
H 19.265100 31.132999 53.457901
H 18.627701 30.375000 51.195202
H 20.040199 29.430599 51.742401
H 24.363001 29.121700 47.786999
H 25.209600 28.328501 46.454899
H 25.881001 29.810301 47.160500
H 25.841499 30.830000 44.877201
H 25.209999 29.275999 44.308102
H 24.313400 30.752199 43.961700
H 21.734400 32.381401 45.934101
H 22.909901 32.260601 44.628101
H 21.884899 30.870001 45.029202
H 25.138201 32.035000 47.591999
H 24.949800 32.733501 45.973499
H 23.836901 33.181801 47.271000
H 20.705299 32.394402 48.942200
H 19.034500 32.154900 49.516102
H 19.968800 34.186501 50.542500
H 21.350500 33.276199 51.181000
H 17.034800 34.699402 53.111599
H 17.674400 36.318298 52.837101
H 18.004101 35.045898 51.661800
H 19.612200 31.714001 56.673500
H 18.586100 31.223301 58.017700
H 18.004299 30.251499 55.707199
H 15.863600 31.732901 57.313999
H 16.493700 30.072399 57.580898
H 14.382400 30.887699 54.103600
H 14.692200 32.202400 55.266998
H 16.292700 32.343899 53.370800
H 16.808201 30.659100 53.679001
H 19.438200 34.006901 61.210499
H 17.873899 34.783798 61.594101
H 18.100700 32.730301 62.958698
H 18.436399 31.778900 61.506699
H 15.826000 33.236099 62.151100
H 16.062500 31.479500 62.107101
H 12.003300 27.347000 55.001900
H 13.813700 28.848200 54.344200
H 14.494700 29.972700 58.419601
*
