! SP DFT wB97X-D3BJ def2-TZVP RIJCOSX LooseSCF
! D3BJ
! CPCM(water)
%maxcore 4000
%pal
  NProcs 8
  End
* xyz 0 1
C 7.375100 28.094999 60.184799
C 8.431900 27.413601 59.316399
O 7.853300 26.647499 58.259899
C 7.334500 27.416000 57.196999
C 9.261600 26.447100 60.139500
N 8.591400 25.697300 61.001900
C 9.244300 24.827900 61.752102
C 10.619400 24.662100 61.696800
C 11.328000 25.440300 60.800201
C 10.652900 26.352200 59.989201
C 11.428400 27.156099 59.037498
N 11.306000 26.975800 57.678799
C 10.637800 25.870899 57.036800
C 11.554500 24.651899 56.945301
C 12.383600 28.111401 59.311298
C 12.843000 28.564400 60.661598
C 12.150100 29.823400 61.231098
C 12.570500 29.995701 62.693100
C 10.630900 29.683201 61.151798
C 12.548300 31.072901 60.437500
O 13.934600 31.374399 60.666302
C 14.513900 32.248798 59.875198
C 15.972400 32.481998 60.242100
N 16.396299 33.761799 59.689400
N 17.777800 33.929298 59.815800
C 18.710300 33.806000 58.864101
C 18.260099 33.436298 57.440800
N 19.046801 34.187801 56.491699
C 18.589199 35.256302 55.832298
C 19.563601 35.750301 54.754299
C 19.548500 37.271900 54.583302
C 20.401100 37.689400 53.388000
C 20.094500 37.895500 55.868000
N 19.239901 34.975300 53.550999
C 19.898300 33.816601 53.413200
C 19.585899 32.860802 52.250000
F 18.227100 32.867100 51.924198
C 19.940500 31.432100 52.668701
C 19.732201 30.471001 51.502300
N 20.481800 30.905600 50.346100
C 21.434299 30.121901 49.812698
C 22.057899 30.610001 48.610699
C 22.644400 30.796700 47.575100
C 23.284901 31.148300 46.311699
N 24.045700 29.979099 45.852501
C 24.983200 29.460699 46.827702
C 24.685600 30.126301 44.561699
C 22.150000 31.461901 45.320499
C 24.132099 32.417301 46.545898
O 21.744301 29.022100 50.276901
C 20.156099 32.233200 49.884399
C 20.381901 33.258400 51.002102
O 20.830799 33.504101 54.158901
C 18.035000 35.333698 52.830601
O 17.479799 35.742401 56.011902
C 18.482300 31.931499 57.220699
C 17.509501 31.315901 56.206402
C 16.184401 30.926600 56.879700
N 15.290700 30.369499 55.890999
C 15.046100 31.350100 54.850201
C 16.382999 31.696501 54.199402
O 17.299299 32.225201 55.139702
O 19.903500 33.995602 59.099201
C 18.126101 34.091099 61.220299
C 17.719299 32.826302 61.979099
C 16.235901 32.532200 61.750000
O 13.977000 32.787399 58.928799
C 12.898400 28.532301 58.048401
C 12.212300 27.791300 57.058899
C 12.516700 27.947599 55.711399
C 13.512500 28.829300 55.366798
C 14.218100 29.575300 56.332401
C 13.901900 29.427401 57.671799
H 7.857600 28.598499 61.016300
H 6.818900 28.827400 59.606800
H 6.695500 27.340799 60.569401
H 9.098400 28.169800 58.870499
H 6.459600 27.995600 57.502998
H 8.097800 28.096600 56.801201
H 7.043500 26.703199 56.429001
H 8.631900 24.246099 62.426899
H 11.116600 23.944500 62.328999
H 12.400000 25.341600 60.706902
H 9.737200 25.621901 57.601101
H 10.339500 26.191000 56.036201
H 11.822000 24.307100 57.941502
H 11.048100 23.846500 56.422298
H 12.466200 24.905001 56.408699
H 12.678300 27.754101 61.373901
H 13.916300 28.761999 60.614899
H 12.206100 29.160700 63.285301
H 13.652600 30.037600 62.776501
H 12.157500 30.914700 63.100399
H 10.144900 30.508600 61.665199
H 10.302300 29.679100 60.116402
H 10.320500 28.751400 61.617001
H 11.961500 31.937500 60.763401
H 12.384700 30.932699 59.364700
H 16.539600 31.637400 59.805901
H 16.054701 33.917400 58.747601
H 17.220400 33.718102 57.254002
H 19.979500 33.848801 56.300598
H 20.579300 35.451401 55.032299
H 18.517700 37.616798 54.461201
H 21.416901 37.321301 53.513500
H 20.005301 37.292599 52.458199
H 20.432699 38.772701 53.316898
H 19.497801 37.588299 56.724300
H 21.123400 37.585701 56.036598
H 20.064600 38.979099 55.798599
H 20.977699 31.421499 53.001400
H 19.308399 31.145800 53.509399
H 18.669001 30.437799 51.239899
H 20.072399 29.468300 51.765999
H 24.485399 29.332399 47.787399
H 25.327801 28.484900 46.486301
H 25.866199 30.104300 46.966900
H 25.536400 30.824100 44.574799
H 25.058901 29.147200 44.263199
H 23.965300 30.453199 43.818401
H 21.424999 32.119099 45.793499
H 22.536501 31.959299 44.436001
H 21.652700 30.540701 45.031502
H 24.899200 32.235100 47.294601
H 24.604500 32.722801 45.616299
H 23.493601 33.223499 46.895500
H 20.778900 32.473598 49.022499
H 19.101801 32.254101 49.587002
H 20.071600 34.244099 50.656700
H 21.435699 33.296799 51.277901
H 17.183800 34.751301 53.187801
H 17.822201 36.382301 53.005600
H 18.160101 35.172699 51.763302
H 19.508801 31.796600 56.877701
H 18.378500 31.395300 58.164902
H 17.951200 30.391199 55.796101
H 15.743100 31.815300 57.361900
H 16.399500 30.165600 57.630798
H 14.368000 30.949699 54.100399
H 14.603600 32.267399 55.276699
H 16.258600 32.463001 53.435299
H 16.807600 30.789900 53.744499
H 19.198299 34.271301 61.279301
H 17.576700 34.953701 61.599602
H 17.914301 32.964802 63.040600
H 18.322300 31.988100 61.624100
H 15.631300 33.329800 62.180500
H 15.952900 31.586800 62.208900
H 12.006200 27.381100 54.948002
H 13.784700 28.931499 54.328300
H 14.426400 29.984301 58.431198
*
