! SP DFT wB97X-D3BJ def2-TZVP RIJCOSX
! D3BJ
! CPCM(water)
%maxcore 4000
%pal
  NProcs 8
  End
* xyz 0 1
C 7.256200 28.848101 60.121799
C 8.267400 27.897200 59.481899
O 7.648600 26.930700 58.634102
C 7.111900 27.451599 57.437801
C 9.006000 27.106199 60.544998
N 8.253500 26.615101 61.518799
C 8.815100 25.905600 62.480701
C 10.175800 25.646999 62.535000
C 10.969900 26.155800 61.524101
C 10.392400 26.899700 60.494801
C 11.263700 27.431101 59.440300
N 11.183200 26.987200 58.141201
C 10.442800 25.835199 57.689201
C 11.257200 24.553900 57.860199
C 12.277800 28.356899 59.569099
C 12.700300 29.046000 60.828499
C 12.063800 30.430300 61.092400
C 12.387000 30.854500 62.527500
C 10.548900 30.374599 60.907299
C 12.620000 31.474899 60.119400
O 14.012400 31.692900 60.396599
C 14.707700 32.393600 59.532101
C 16.169800 32.524502 59.926300
N 16.716000 33.759300 59.377701
N 18.110399 33.729000 59.451900
C 18.950001 33.279301 58.507301
C 18.348900 32.851002 57.157902
N 18.872801 33.703800 56.116299
C 18.166901 34.717499 55.602501
C 18.868900 35.387798 54.415699
C 18.458300 36.852001 54.225700
C 19.029301 37.411301 52.925800
C 18.974701 37.650799 55.422501
N 18.627501 34.515099 53.260799
C 19.552799 33.575001 53.034401
C 19.423401 32.553799 51.896301
F 18.106899 32.357800 51.477402
C 19.945000 31.199900 52.388302
C 19.987700 30.195299 51.239201
N 20.775999 30.723000 50.149101
C 21.950300 30.161301 49.817200
C 22.681999 30.799299 48.753399
C 23.432100 31.156900 47.881699
C 24.290600 31.694700 46.830101
N 24.643101 30.585800 45.932701
C 25.228800 29.441299 46.601898
C 25.437700 30.955999 44.779800
C 23.470400 32.750900 46.070599
C 25.494400 32.369999 47.521702
O 22.388399 29.139601 50.352100
C 20.276400 31.962299 49.604900
C 20.235500 33.042900 50.690498
O 20.603701 33.528599 53.683800
C 17.299400 34.533100 52.680199
O 17.052700 35.032200 56.002499
C 18.697001 31.378901 56.899799
C 17.669201 30.653799 56.026299
C 16.343100 30.411699 56.767200
N 15.424100 29.730900 55.882099
C 15.198000 30.542999 54.698898
C 16.536400 30.734301 53.992500
O 17.467400 31.393000 54.832600
O 20.166300 33.242901 58.683498
C 18.522200 33.867401 60.841400
C 17.962601 32.686100 61.640800
C 16.450899 32.558102 61.430401
O 14.266700 32.845699 58.494598
C 12.871200 28.482000 58.277000
C 12.168900 27.601700 57.420399
C 12.528800 27.462400 56.084801
C 13.589000 28.200300 55.618198
C 14.306700 29.085699 56.447300
C 13.945900 29.222799 57.776199
H 7.764000 29.494400 60.830200
H 6.779500 29.465599 59.365799
H 6.505500 28.264799 60.645699
H 8.994600 28.471001 58.883801
H 6.225600 28.063601 57.623199
H 7.859800 28.048500 56.903301
H 6.833700 26.588100 56.837700
H 8.138300 25.535200 63.238300
H 10.597000 25.063999 63.337601
H 12.034600 25.972401 61.510799
H 9.512100 25.764700 58.255100
H 10.194500 25.983801 56.635899
H 11.474500 24.384701 58.912399
H 10.695900 23.705900 57.480000
H 12.197500 24.628099 57.318699
H 12.445400 28.406500 61.675201
H 13.785200 29.171301 60.812599
H 11.920500 30.170900 63.231499
H 13.460200 30.850599 62.693600
H 12.012400 31.856600 62.719200
H 10.095800 31.319500 61.195499
H 10.298300 30.173700 59.869400
H 10.130800 29.583799 61.524200
H 12.099800 32.430698 60.236500
H 12.509100 31.150700 59.080101
H 16.669701 31.637501 59.488201
H 16.363899 33.990299 58.453602
H 17.266701 32.995201 57.136200
H 19.791599 33.493099 55.749699
H 19.949800 35.356201 54.588699
H 17.367201 36.930599 54.226799
H 20.112400 37.311798 52.923302
H 18.632900 36.887798 52.061298
H 18.778900 38.464401 52.836601
H 18.557800 37.259899 56.347801
H 20.059500 37.597698 55.480598
H 18.682100 38.692600 55.327801
H 20.941999 31.351700 52.801800
H 19.290600 30.842100 53.183102
H 18.972700 29.999599 50.879299
H 20.445601 29.260300 51.566299
H 24.638399 29.179701 47.478298
H 25.214001 28.598000 45.911800
H 26.271099 29.608200 46.914600
H 26.466299 31.250799 45.036800
H 25.491899 30.088301 44.123100
H 24.958700 31.763100 44.234600
H 22.971701 33.402401 46.783600
H 24.112301 33.361599 45.443199
H 22.721600 32.259998 45.455898
H 26.044901 31.650801 48.123699
H 26.159901 32.797298 46.776199
H 25.142500 33.164799 48.173599
H 20.917101 32.277901 48.781399
H 19.261999 31.791100 49.229900
H 19.783800 33.949600 50.287998
H 21.242701 33.272202 51.038898
H 16.728500 33.658901 52.994701
H 16.778500 35.416302 53.031898
H 17.350700 34.559299 51.593899
H 19.675200 31.340700 56.418800
H 18.775499 30.847799 57.849499
H 18.074301 29.663300 55.755699
H 15.923600 31.373899 57.107300
H 16.544500 29.772900 57.628700
H 14.494400 30.051300 54.031200
H 14.793100 31.531799 54.978500
H 16.428801 31.357901 53.105202
H 16.936001 29.750900 53.705601
H 19.610800 33.888199 60.868698
H 18.115400 34.808498 61.211899
H 18.181801 32.831001 62.696800
H 18.457899 31.770901 61.308998
H 15.942100 33.421299 61.857101
H 16.074400 31.653601 61.904598
H 12.008300 26.783400 55.427601
H 13.904100 28.079901 54.593700
H 14.486400 29.886999 58.432201
*
