! SP DFT wB97X-D3BJ def2-TZVP RIJCOSX LooseSCF
! D3BJ
! CPCM(water)
%maxcore 4000
%pal
  NProcs 8
  End
* xyz 0 1
C 7.376300 28.085501 60.186199
C 8.439600 27.410299 59.321098
O 7.868100 26.651699 58.255199
C 7.361700 27.427700 57.192101
C 9.265800 26.439899 60.142601
N 8.594200 25.689100 61.002800
C 9.245200 24.817301 61.751900
C 10.620500 24.650299 61.697399
C 11.330400 25.429501 60.802502
C 10.657300 26.343399 59.992599
C 11.432000 27.148500 59.041000
N 11.304100 26.971600 57.682999
C 10.640000 25.864000 57.041901
C 11.559800 24.646999 56.952499
C 12.383800 28.107201 59.313999
C 12.846400 28.559601 60.663399
C 12.153000 29.817699 61.234299
C 12.574300 29.990200 62.696098
C 10.633900 29.676300 61.156502
C 12.548200 31.068100 60.440601
O 13.933700 31.372700 60.667900
C 14.510300 32.246201 59.874298
C 15.968300 32.483002 60.238400
N 16.385500 33.765900 59.687901
N 17.766001 33.941101 59.814098
C 18.700399 33.814999 58.864601
C 18.252399 33.443401 57.440899
N 19.044001 34.190899 56.492500
C 18.592199 35.263302 55.835098
C 19.569099 35.752899 54.757599
C 19.558201 37.274200 54.584599
C 20.414301 37.687199 53.389702
C 20.105000 37.898102 55.868500
N 19.245701 34.977600 53.555199
C 19.901501 33.817299 53.418400
C 19.588800 32.862900 52.253201
F 18.230900 32.871700 51.925999
C 19.941099 31.433500 52.671501
C 19.737900 30.472700 51.503899
N 20.488400 30.908400 50.348598
C 21.440701 30.123301 49.814098
C 22.066401 30.610300 48.612499
C 22.644899 30.791201 47.571301
C 23.281500 31.140301 46.305000
N 24.045500 29.972700 45.847698
C 24.990999 29.464001 46.820499
C 24.678101 30.115200 44.552601
C 22.144400 31.446899 45.313999
C 24.124701 32.412899 46.534100
O 21.747601 29.022699 50.276501
C 20.163700 32.236401 49.888000
C 20.387400 33.261299 51.006802
O 20.831400 33.501801 54.166100
C 18.043800 35.337200 52.829899
O 17.485201 35.755100 56.015999
C 18.469601 31.937700 57.223099
C 17.497200 31.323099 56.207199
C 16.171600 30.934099 56.879501
N 15.276700 30.378500 55.890701
C 15.034400 31.359600 54.850201
C 16.372700 31.700899 54.199299
O 17.287800 32.232201 55.139900
O 19.893000 34.007900 59.101101
C 18.112400 34.103199 61.219002
C 17.716101 32.832901 61.973701
C 16.234501 32.529598 61.745602
O 13.971800 32.778500 58.924099
C 12.892300 28.533501 58.050301
C 12.204600 27.793100 57.061298
C 12.502900 27.955400 55.713200
C 13.495200 28.840401 55.366901
C 14.204300 29.584000 56.332298
C 13.892700 29.431299 57.672100
H 7.852800 28.589500 61.020901
H 6.820200 28.816200 59.605999
H 6.697000 27.328199 60.565800
H 9.108700 28.170099 58.884899
H 6.484600 28.007799 57.492298
H 8.130600 28.109699 56.809399
H 7.077600 26.720600 56.416100
H 8.632400 24.233999 62.424999
H 11.116000 23.931200 62.328899
H 12.402500 25.329500 60.709900
H 9.739700 25.612600 57.605900
H 10.340800 26.181900 56.040901
H 11.824500 24.301901 57.949200
H 11.056300 23.841000 56.427399
H 12.472600 24.902201 56.418900
H 12.684100 27.749001 61.375801
H 13.919200 28.758400 60.613998
H 12.208400 29.156200 63.289001
H 13.656500 30.030500 62.779598
H 12.162700 30.910200 63.102600
H 10.147900 30.500299 61.672001
H 10.304600 29.674200 60.121300
H 10.324300 28.743299 61.619999
H 11.959700 31.931101 60.768398
H 12.383300 30.928699 59.368000
H 16.538099 31.642200 59.798500
H 16.044100 33.920300 58.745499
H 17.214300 33.729801 57.252201
H 19.974701 33.847198 56.300999
H 20.583599 35.451801 55.038300
H 18.528500 37.621498 54.460300
H 21.427700 37.313400 53.516602
H 20.017401 37.293098 52.459202
H 20.451700 38.770500 53.318802
H 19.506500 37.594601 56.725201
H 21.132401 37.584801 56.038200
H 20.079100 38.981800 55.797199
H 20.976400 31.422701 53.010201
H 19.303900 31.146500 53.508099
H 18.675301 30.437700 51.239498
H 20.079800 29.470800 51.768002
H 24.499701 29.340599 47.784302
H 25.337200 28.487000 46.483700
H 25.872801 30.112301 46.949299
H 25.528999 30.813299 44.558601
H 25.049801 29.134600 44.256500
H 23.954000 30.439501 43.811699
H 21.414801 32.099899 45.786201
H 22.528900 31.946400 44.429401
H 21.652800 30.522400 45.025299
H 24.892200 32.236198 47.283401
H 24.596399 32.715599 45.603500
H 23.483801 33.218498 46.880199
H 20.787800 32.477299 49.026901
H 19.109699 32.258202 49.589699
H 20.076000 34.246101 50.660301
H 21.440201 33.300999 51.285000
H 17.193899 34.743698 53.170898
H 17.821600 36.382099 53.017101
H 18.179899 35.192001 51.761398
H 19.496401 31.799000 56.882500
H 18.361300 31.403000 58.167198
H 17.939600 30.398701 55.796700
H 15.731000 31.823099 57.361698
H 16.385799 30.172400 57.629902
H 14.353500 30.962500 54.101299
H 14.597100 32.278900 55.277302
H 16.251699 32.464298 53.431702
H 16.797300 30.791401 53.750099
H 19.182899 34.292099 61.279598
H 17.555099 34.960201 61.598701
H 17.911699 32.968201 63.035301
H 18.324400 32.001099 61.613300
H 15.625300 33.321899 62.180302
H 15.957800 31.580999 62.202499
H 11.990500 27.389900 54.949799
H 13.762100 28.946699 54.327202
H 14.419300 29.986601 58.431198
*
