! SP DFT wB97X-D3BJ def2-TZVP RIJCOSX LooseSCF
! D3BJ
! CPCM(water)
%maxcore 4000
%pal
  NProcs 8
  End
* xyz 0 1
C 7.239000 29.128700 59.832001
C 8.276600 28.095200 59.394798
O 7.697700 27.019300 58.657700
C 7.242200 27.364700 57.367802
C 8.944600 27.460300 60.599899
N 8.134600 27.128401 61.594601
C 8.632300 26.559500 62.677601
C 9.982200 26.289101 62.838200
C 10.836200 26.632799 61.806702
C 10.327100 27.229000 60.652699
C 11.261100 27.597601 59.582298
N 11.239900 26.980101 58.354099
C 10.508100 25.781900 58.025299
C 11.305000 24.530701 58.390202
C 12.279300 28.526600 59.635300
C 12.640000 29.375900 60.813801
C 12.017600 30.791599 60.852402
C 12.219000 31.378401 62.252201
C 10.525600 30.740200 60.531601
C 12.692900 31.704901 59.824600
O 14.068100 31.893299 60.192299
C 14.866400 32.460701 59.318901
C 16.306101 32.527000 59.797501
N 16.969801 33.703499 59.251801
N 18.351999 33.541901 59.371399
C 19.150900 32.948399 58.471699
C 18.511200 32.529499 57.134102
N 18.935699 33.438202 56.092300
C 18.215401 34.521000 55.775101
C 18.754200 35.263500 54.549702
C 18.184799 36.680801 54.401402
C 18.553301 37.264099 53.040298
C 18.739401 37.550800 55.528000
N 18.477600 34.392200 53.406502
C 19.518700 33.758801 52.857101
C 19.364599 32.717899 51.741901
F 18.049700 32.535198 51.315800
C 19.872101 31.379299 52.293800
C 19.912901 30.326300 51.187901
N 20.710699 30.802500 50.081200
C 21.894199 30.235100 49.793400
C 22.635099 30.833099 48.713001
C 23.387899 31.174000 47.837002
C 24.243200 31.698000 46.775902
N 24.673000 30.564600 45.945801
C 25.297501 29.487101 46.687000
C 25.477800 30.916000 44.793999
C 23.388201 32.669399 45.944599
C 25.393900 32.471001 47.455601
O 22.330200 29.241501 50.380501
C 20.220400 32.020699 49.483002
C 20.184799 33.146801 50.519798
O 20.678699 33.968201 53.228401
C 17.077801 34.113499 53.148602
O 17.186501 34.831001 56.363800
C 18.886900 31.079000 56.815201
C 17.829800 30.325399 56.002499
C 16.504299 30.142700 56.760799
N 15.592100 29.387600 55.928398
C 15.362000 30.103500 54.683998
C 16.699100 30.266701 53.968498
O 17.618601 30.992100 54.767700
O 20.352200 32.781601 58.671902
C 18.733299 33.678398 60.769402
C 18.030701 32.584202 61.582001
C 16.522200 32.583500 61.311199
O 14.528400 32.828999 58.211899
C 12.937600 28.471100 58.369801
C 12.265600 27.486700 57.606300
C 12.681000 27.167801 56.318199
C 13.765400 27.834801 55.803902
C 14.454800 28.818199 56.540298
C 14.043000 29.131201 57.823399
H 7.710700 29.870300 60.468300
H 6.811900 29.631100 58.968800
H 6.454400 28.627199 60.389801
H 9.043100 28.577000 58.765598
H 6.353200 27.999201 57.407700
H 8.028600 27.877300 56.801899
H 6.991900 26.424999 56.880600
H 7.911200 26.316099 63.445702
H 10.350200 25.822599 63.737400
H 11.895800 26.432899 61.875500
H 9.556500 25.788200 58.559799
H 10.300200 25.794300 56.952900
H 11.485200 24.499500 59.462299
H 10.749300 23.642799 58.104599
H 12.263800 24.528900 57.876701
H 12.320300 28.858601 61.719799
H 13.726100 29.484200 60.851101
H 11.674400 30.789600 62.985298
H 13.272500 31.380800 62.516102
H 11.852500 32.401001 62.289700
H 10.075800 31.721300 60.659199
H 10.365200 30.417500 59.506500
H 10.030200 30.038900 61.197498
H 12.210500 32.686901 59.798801
H 12.647800 31.275801 58.818802
H 16.768900 31.595699 59.409901
H 16.675100 33.972801 58.315800
H 17.425100 32.629101 57.181099
H 19.811001 33.253201 55.625099
H 19.844999 35.330898 54.624401
H 17.096600 36.646198 54.506901
H 19.632401 37.240398 52.903400
H 18.091299 36.701302 52.234299
H 18.217800 38.295101 52.977100
H 18.467300 37.136501 56.495701
H 19.823700 37.610699 55.465599
H 18.331301 38.555000 55.458000
H 20.873699 31.544500 52.693100
H 19.218700 31.055799 53.104599
H 18.898701 30.122900 50.830601
H 20.362700 29.403200 51.557098
H 24.699900 29.243000 47.563499
H 25.339500 28.609200 46.042599
H 26.323099 29.721500 47.011902
H 26.483700 31.274700 45.059399
H 25.591299 30.020399 44.184101
H 24.973900 31.669800 44.197399
H 22.840799 33.330601 46.611500
H 24.012600 33.279202 45.298698
H 22.679501 32.109200 45.341801
H 25.969601 31.812700 48.102100
H 26.050900 32.898102 46.702599
H 24.985800 33.275299 48.061401
H 20.863899 32.296398 48.647701
H 19.205799 31.839500 49.113400
H 19.735800 34.037102 50.078800
H 21.190599 33.390099 50.862400
H 16.853399 33.066601 53.347698
H 16.478500 34.719200 53.821400
H 16.810101 34.354401 52.121700
H 19.830099 31.074499 56.267399
H 19.048599 30.536800 57.747700
H 18.219900 29.316299 55.785099
H 16.078600 31.128099 57.015499
H 16.699900 29.578501 57.674400
H 14.671300 29.546600 54.054501
H 14.935500 31.102400 54.884499
H 16.580900 30.830299 53.042099
H 17.115999 29.274300 53.746300
H 19.816900 33.588299 60.834400
H 18.414400 34.666698 61.100498
H 18.220100 32.747398 62.641102
H 18.451200 31.615499 61.302799
H 16.074600 33.501598 61.689098
H 16.049200 31.731199 61.795502
H 12.181800 26.409201 55.735901
H 14.123200 27.583700 54.817699
H 14.565700 29.872400 58.408001
*
