! SP DFT wB97X-D3BJ def2-TZVP RIJCOSX LooseSCF
! D3BJ
! CPCM(water)
%maxcore 4000
%pal
  NProcs 8
  End
* xyz 0 1
C 7.485200 29.571100 60.887299
C 8.343400 28.521999 60.181000
O 7.560100 27.557699 59.479000
C 6.896300 28.053200 58.336700
C 9.165000 27.735100 61.184700
N 8.517600 27.349300 62.274502
C 9.153000 26.648399 63.195900
C 10.487700 26.290501 63.087898
C 11.172900 26.689600 61.955399
C 10.516000 27.425501 60.968700
C 11.278100 27.848400 59.787998
N 11.000100 27.367901 58.530201
C 10.131300 26.257999 58.225300
C 10.876300 24.928699 58.334202
C 12.361500 28.701099 59.747299
C 12.975800 29.407801 60.914600
C 12.470900 30.845800 61.179798
C 12.956300 31.289600 62.562302
C 10.945800 30.905600 61.132801
C 13.016200 31.811001 60.122398
O 14.444100 31.888800 60.249001
C 15.116900 32.491001 59.296700
C 16.618099 32.430199 59.519798
N 17.266399 33.596298 58.932800
N 18.636299 33.341599 58.818401
C 19.242100 32.751099 57.776100
C 18.400400 32.529900 56.508099
N 18.790001 33.511799 55.521599
C 18.044701 34.595100 55.271198
C 18.587900 35.422901 54.102699
C 17.994801 36.834400 54.007801
C 18.529499 37.547798 52.768101
C 18.363501 37.618599 55.266399
N 18.365601 34.623199 52.897301
C 19.410500 33.950500 52.407600
C 19.279301 33.119400 51.126900
F 18.223101 33.564499 50.328098
C 19.037399 31.658501 51.525398
C 19.028500 30.762400 50.286800
N 20.263599 30.927299 49.555401
C 21.173100 29.938499 49.513599
C 22.404400 30.246000 48.833000
C 23.480700 30.319099 48.298100
C 24.778700 30.530701 47.662601
N 24.874599 29.605700 46.525398
C 24.662399 28.214800 46.873600
C 26.067101 29.746500 45.715698
C 24.804800 31.986500 47.167500
C 25.858700 30.331699 48.747501
O 20.978399 28.819201 49.994202
C 20.498699 32.275799 49.097500
C 20.554100 33.239300 50.285500
O 20.509199 33.945400 52.972801
C 16.985600 34.471802 52.481400
O 17.011000 34.849899 55.877300
C 18.580400 31.097500 55.991299
C 17.322901 30.532801 55.324001
C 16.164499 30.324499 56.314999
N 15.038500 29.762199 55.600498
C 14.628100 30.680000 54.550201
C 15.799600 30.875299 53.592999
O 16.934900 31.392401 54.263802
O 20.435600 32.458099 57.794800
C 19.241400 33.361198 60.142399
C 18.607700 32.257401 60.995602
C 17.080000 32.368099 60.977200
O 14.619900 32.981602 58.303200
C 12.789900 28.739599 58.386200
C 11.920200 27.887800 57.663502
C 12.078600 27.689400 56.296299
C 13.105700 28.344200 55.662601
C 13.990200 29.192200 56.357201
C 13.836400 29.383499 57.717999
H 8.120300 30.219999 61.481400
H 6.948300 30.177000 60.163101
H 6.778800 29.068100 61.540401
H 9.019000 29.013901 59.461700
H 6.074900 28.723101 58.603401
H 7.595900 28.580900 57.678398
H 6.497100 27.180500 57.824699
H 8.560100 26.368299 64.055603
H 10.971600 25.716999 63.861500
H 12.211500 26.426701 61.815498
H 9.284500 26.268700 58.913700
H 9.751400 26.392799 57.210098
H 11.225700 24.776400 59.352798
H 10.213500 24.111099 58.067699
H 11.735500 24.920200 57.667301
H 12.775900 28.824499 61.814800
H 14.057600 29.451099 60.771801
H 12.509900 30.665800 63.331902
H 14.037300 31.211000 62.630001
H 12.673800 32.322601 62.748600
H 10.595800 31.893801 61.419601
H 10.584600 30.688801 60.131199
H 10.527800 30.173599 61.818401
H 12.607000 32.816101 60.263302
H 12.765000 31.478500 59.110401
H 16.939600 31.500000 59.007198
H 16.839800 33.921902 58.068901
H 17.342699 32.720501 56.698002
H 19.660700 33.371201 55.026901
H 19.674299 35.506802 54.219501
H 16.905399 36.765301 53.955299
H 19.613600 37.623501 52.819901
H 18.267700 37.015499 51.858200
H 18.115601 38.550400 52.711601
H 17.945299 37.141201 56.148499
H 19.444000 37.675598 55.378399
H 17.967400 38.627998 55.202400
H 19.851801 31.364201 52.189701
H 18.100300 31.562599 52.073002
H 18.192200 31.034901 49.636200
H 18.942699 29.713499 50.575199
H 23.785700 28.121500 47.512100
H 24.482599 27.656401 45.955101
H 25.523800 27.760201 47.386700
H 26.985100 29.431101 46.234100
H 25.945400 29.116100 44.835499
H 26.178101 30.773800 45.383099
H 24.440300 32.641899 47.954601
H 25.815599 32.290501 46.912998
H 24.163799 32.089100 46.296700
H 25.803499 29.329599 49.166302
H 26.846701 30.489000 48.322800
H 25.705000 31.047400 49.550598
H 21.434299 32.310200 48.539799
H 19.674000 32.564201 48.437801
H 20.647499 34.263699 49.924099
H 21.405300 33.017601 50.928699
H 16.797701 33.460701 52.134102
H 16.348700 34.654301 53.344101
H 16.730801 35.174599 51.688000
H 19.402700 31.086300 55.275002
H 18.856701 30.443199 56.818901
H 17.567900 29.545300 54.897301
H 15.894100 31.288700 56.777901
H 16.482800 29.621599 57.087101
H 13.774600 30.271900 54.012402
H 14.346400 31.658600 54.978500
H 15.542300 31.600599 52.820599
H 16.057199 29.910801 53.132198
H 20.313200 33.206902 60.024601
H 19.044300 34.341900 60.575500
H 18.976400 32.335701 62.016499
H 18.908899 31.287100 60.594299
H 16.766001 33.282799 61.478100
H 16.629900 31.514601 61.480701
H 11.426800 27.032200 55.742001
H 13.265100 28.190201 54.606899
H 14.514700 30.017900 58.267700
*
